LAMMPS data file via write_data, version 7 Feb 2024, timestep = 10019, units = metal

512 atoms
1 atom types

0 22.4 xlo xhi
0 22.4 ylo yhi
0 22.4 zlo zhi
0 0 0 xy xz yz

Masses

1 28.0855

Atoms # atomic

5 1 0.6249999997297969 0.6249999997243927 0.6249999997417446 0 0 0
13 1 6.224999999809416 0.6249999998115165 0.6249999998408683 0 0 0
21 1 11.82499999991855 0.6249999999177546 0.6249999999157336 0 0 0
29 1 17.424999999786113 0.6249999998375824 0.6249999998184328 0 0 0
8 1 3.424999999849394 3.4249999998277927 0.6249999998060148 0 0 0
16 1 9.02499999997902 3.4250000000105687 0.6250000000027955 0 0 0
24 1 14.624999999959716 3.4249999999693523 0.6250000000129785 0 0 0
32 1 20.224999999786395 3.424999999823832 0.624999999776397 0 0 0
37 1 0.6249999998503383 6.22499999984399 0.6249999998698342 0 0 0
45 1 6.224999999977655 6.224999999987057 0.6249999999772415 0 0 0
53 1 11.825000000080596 6.22500000008758 0.6250000000851462 0 0 0
61 1 17.42499999993713 6.2249999999627255 0.6249999999904005 0 0 0
40 1 3.424999999978821 9.024999999945518 0.6249999999969799 0 0 0
48 1 9.025000000109063 9.025000000118201 0.6250000001337955 0 0 0
56 1 14.625000000092369 9.025000000074165 0.6250000000748045 0 0 0
64 1 20.224999999910516 9.024999999953032 0.6249999998964144 0 0 0
69 1 0.6249999998802678 11.824999999860125 0.6249999998722304 0 0 0
77 1 6.225000000021055 11.824999999993727 0.625000000019079 0 0 0
85 1 11.825000000107314 11.825000000092492 0.6250000001415263 0 0 0
93 1 17.424999999952306 11.824999999975388 0.6250000000041104 0 0 0
72 1 3.42499999989621 14.62499999984075 0.6249999999111658 0 0 0
80 1 9.02500000000603 14.625000000020147 0.6249999999870747 0 0 0
88 1 14.624999999997243 14.62499999997381 0.6249999999933432 0 0 0
96 1 20.224999999840307 14.624999999861304 0.6249999998646055 0 0 0
101 1 0.6249999997607691 17.42499999972918 0.6249999997459278 0 0 0
109 1 6.224999999866851 17.424999999861 0.6249999998966007 0 0 0
117 1 11.824999999946321 17.42499999992709 0.6249999999684505 0 0 0
125 1 17.42499999978846 17.42499999979947 0.6249999998152046 0 0 0
104 1 3.424999999749749 20.224999999716022 0.624999999732448 0 0 0
112 1 9.024999999895439 20.224999999897516 0.624999999853344 0 0 0
120 1 14.62499999989093 20.224999999871173 0.6249999999139375 0 0 0
128 1 20.224999999706565 20.22499999974274 0.6249999997416247 0 0 0
7 1 3.4249999998605527 0.6249999998444888 3.4249999998482483 0 0 0
15 1 9.025000000008959 0.6250000000085434 3.4250000000318965 0 0 0
23 1 14.624999999979355 0.625000000005225 3.425000000000675 0 0 0
31 1 20.224999999788356 0.6249999998057001 3.4249999998503644 0 0 0
6 1 0.6249999998597771 3.4249999998736396 3.4249999998817784 0 0 0
2 1 4.824999999937576 2.0249999999118224 2.024999999901118 0 0 0
14 1 6.225000000000488 3.425000000033913 3.42500000002409 0 0 0
10 1 10.425000000090057 2.025000000039046 2.0250000000398596 0 0 0
22 1 11.825000000108334 3.425000000098127 3.425000000107175 0 0 0
18 1 16.024999999981404 2.02499999990803 2.024999999929652 0 0 0
30 1 17.42499999992402 3.4249999999709226 3.4249999999960012 0 0 0
26 1 21.624999999812147 2.024999999814909 2.0249999998215684 0 0 0
3 1 2.0249999999400217 4.824999999940072 2.0249999999071835 0 0 0
11 1 7.625000000063275 4.825000000121301 2.0250000000948476 0 0 0
19 1 13.225000000098863 4.825000000135309 2.0250000000804036 0 0 0
27 1 18.824999999933873 4.824999999904087 2.0249999999445465 0 0 0
39 1 3.42500000003557 6.225000000004717 3.4250000000100402 0 0 0
47 1 9.025000000145152 6.225000000150193 3.4250000001936654 0 0 0
55 1 14.625000000116055 6.225000000140878 3.42500000013771 0 0 0
63 1 20.224999999953596 6.22499999995667 3.4250000000013463 0 0 0
34 1 4.825000000110676 7.625000000043653 2.0250000000582165 0 0 0
42 1 10.425000000198139 7.625000000166488 2.0250000001937156 0 0 0
50 1 16.025000000091758 7.625000000059738 2.02500000005476 0 0 0
58 1 21.62499999996944 7.624999999973967 2.0249999999541015 0 0 0
38 1 0.6250000000252652 9.025000000005239 3.4250000000122007 0 0 0
46 1 6.225000000127815 9.025000000124468 3.4250000001652303 0 0 0
54 1 11.825000000201841 9.025000000192131 3.4250000002349665 0 0 0
62 1 17.425000000045202 9.02500000010971 3.4250000001160297 0 0 0
35 1 2.0249999999878776 10.425000000061251 2.024999999964426 0 0 0
71 1 3.4250000000471696 11.825000000037448 3.4250000000358995 0 0 0
43 1 7.625000000108335 10.425000000154133 2.0250000001578554 0 0 0
79 1 9.025000000152925 11.825000000139218 3.4250000002100913 0 0 0
51 1 13.225000000164474 10.425000000147943 2.025000000127537 0 0 0
87 1 14.625000000160128 11.825000000135171 3.4250000001592498 0 0 0
59 1 18.824999999994912 10.42500000000713 2.024999999996384 0 0 0
95 1 20.2250000000065 11.824999999983476 3.425000000048098 0 0 0
66 1 4.825000000037246 13.224999999985224 2.0249999999820942 0 0 0
74 1 10.425000000092053 13.225000000134083 2.0250000001130006 0 0 0
82 1 16.025000000051943 13.22500000002293 2.024999999995919 0 0 0
90 1 21.624999999941622 13.22499999990859 2.024999999897782 0 0 0
70 1 0.6249999999306336 14.624999999890768 3.4249999999349874 0 0 0
78 1 6.225000000023075 14.625000000013147 3.425000000054139 0 0 0
86 1 11.825000000116718 14.625000000110743 3.4250000001318712 0 0 0
94 1 17.42499999999557 14.625000000026795 3.4250000000470004 0 0 0
67 1 2.024999999830827 16.024999999885097 2.0249999998227883 0 0 0
75 1 7.624999999970815 16.02499999999425 2.0249999999969637 0 0 0
83 1 13.225000000031367 16.025000000052152 2.0249999999817017 0 0 0
91 1 18.82499999984159 16.024999999907035 2.0249999998510613 0 0 0
103 1 3.4249999998727074 17.42499999984055 3.4249999998750997 0 0 0
98 1 4.8249999998431665 18.82499999984893 2.0249999998509 0 0 0
111 1 9.02500000002453 17.42499999997452 3.4250000000547765 0 0 0
106 1 10.42499999997974 18.82499999999005 2.0249999999785517 0 0 0
119 1 14.62500000003025 17.425000000026888 3.425000000024332 0 0 0
114 1 16.024999999954492 18.82499999986632 2.024999999852241 0 0 0
127 1 20.224999999839383 17.424999999845927 3.4249999998925573 0 0 0
122 1 21.62499999978079 18.824999999758372 2.024999999754488 0 0 0
102 1 0.6249999997777613 20.2249999997534 3.424999999788215 0 0 0
110 1 6.224999999889586 20.224999999904345 3.424999999933943 0 0 0
118 1 11.825000000002662 20.225000000014923 3.425000000031056 0 0 0
126 1 17.42499999987242 20.224999999897193 3.4249999999153937 0 0 0
99 1 2.0249999997890167 21.624999999792447 2.0249999997711767 0 0 0
107 1 7.624999999932878 21.624999999938836 2.0249999999444404 0 0 0
115 1 13.224999999965187 21.625000000006853 2.024999999937748 0 0 0
123 1 18.824999999780523 21.62499999982267 2.024999999798908 0 0 0
4 1 2.024999999937267 2.02499999991534 4.824999999962952 0 0 0
12 1 7.62500000007861 2.025000000111248 4.825000000103977 0 0 0
20 1 13.225000000124316 2.0250000000863597 4.825000000129282 0 0 0
28 1 18.82499999994126 2.0249999999459445 4.8249999999350734 0 0 0
1 1 4.8250000001335875 4.825000000116741 4.825000000143056 0 0 0
9 1 10.425000000210753 4.82500000020908 4.825000000215683 0 0 0
17 1 16.025000000137045 4.825000000105466 4.825000000084466 0 0 0
25 1 21.62500000001404 4.825000000018714 4.825000000011057 0 0 0
36 1 2.0250000001003348 7.625000000062433 4.825000000105976 0 0 0
44 1 7.625000000219782 7.625000000241716 4.825000000237281 0 0 0
52 1 13.225000000253 7.62500000021738 4.825000000260522 0 0 0
60 1 18.825000000082376 7.625000000102705 4.8250000000775755 0 0 0
33 1 4.8250000001578215 10.425000000163557 4.825000000152917 0 0 0
41 1 10.425000000269929 10.425000000290272 4.825000000252198 0 0 0
49 1 16.025000000205843 10.42500000018654 4.825000000175842 0 0 0
57 1 21.625000000082615 10.425000000075507 4.825000000087769 0 0 0
68 1 2.0250000000155866 13.225000000009715 4.825000000041437 0 0 0
76 1 7.6250000001398694 13.225000000189754 4.82500000016296 0 0 0
84 1 13.225000000205185 13.22500000018338 4.825000000193311 0 0 0
92 1 18.825000000029583 13.225000000051221 4.825000000030875 0 0 0
65 1 4.825000000003189 16.025000000013783 4.824999999977972 0 0 0
73 1 10.425000000137082 16.025000000156762 4.825000000136941 0 0 0
81 1 16.02500000007467 16.025000000070644 4.825000000056197 0 0 0
89 1 21.624999999918536 16.02499999994438 4.824999999908721 0 0 0
100 1 2.0249999998788963 18.824999999859482 4.824999999877905 0 0 0
108 1 7.625000000016793 18.825000000039704 4.825000000024573 0 0 0
116 1 13.225000000060211 18.82500000004334 4.825000000070591 0 0 0
124 1 18.82499999987989 18.824999999901344 4.824999999881554 0 0 0
97 1 4.824999999979701 21.624999999974136 4.8249999999684565 0 0 0
105 1 10.42500000009142 21.625000000118913 4.8250000001182185 0 0 0
113 1 16.025000000007438 21.624999999977096 4.824999999968998 0 0 0
121 1 21.624999999839243 21.62499999983932 4.824999999819087 0 0 0
133 1 0.624999999861391 0.6249999998500428 6.224999999839748 0 0 0
141 1 6.225000000007415 0.6250000000120384 6.224999999997592 0 0 0
149 1 11.825000000119466 0.625000000144069 6.225000000132891 0 0 0
157 1 17.4249999999629 0.625000000001581 6.224999999999693 0 0 0
136 1 3.4250000000303458 3.425000000012595 6.225000000039499 0 0 0
144 1 9.025000000153796 3.4250000001961336 6.225000000149564 0 0 0
152 1 14.625000000148397 3.425000000145214 6.2250000001087775 0 0 0
160 1 20.224999999971903 3.425000000014638 6.224999999953825 0 0 0
165 1 0.6250000000393962 6.225000000039776 6.225000000018786 0 0 0
173 1 6.225000000184389 6.22500000018686 6.225000000193033 0 0 0
181 1 11.825000000248671 6.225000000250619 6.225000000258987 0 0 0
189 1 17.425000000093537 6.225000000118893 6.225000000105266 0 0 0
168 1 3.425000000169732 9.025000000115838 6.225000000140162 0 0 0
176 1 9.025000000289923 9.025000000306912 6.225000000222786 0 0 0
184 1 14.625000000271733 9.025000000260459 6.225000000263656 0 0 0
192 1 20.225000000102057 9.02500000013638 6.2250000001252195 0 0 0
197 1 0.6250000000969308 11.825000000053912 6.225000000088506 0 0 0
205 1 6.225000000190072 11.825000000174544 6.225000000202048 0 0 0
213 1 11.825000000269046 11.825000000262177 6.225000000252366 0 0 0
221 1 17.425000000129945 11.825000000148034 6.225000000148515 0 0 0
200 1 3.425000000062385 14.62500000002064 6.225000000012202 0 0 0
208 1 9.025000000193751 14.625000000206237 6.225000000171855 0 0 0
216 1 14.625000000196719 14.625000000169667 6.2250000002210895 0 0 0
224 1 20.225000000024313 14.625000000036874 6.225000000007297 0 0 0
229 1 0.6249999999327724 17.424999999907442 6.2249999999242185 0 0 0
237 1 6.2250000000078 17.42500000000035 6.225000000001848 0 0 0
245 1 11.825000000127964 17.425000000104554 6.225000000110192 0 0 0
253 1 17.425000000006015 17.42500000002154 6.225000000045508 0 0 0
232 1 3.4249999999444927 20.224999999900138 6.224999999905735 0 0 0
240 1 9.025000000081139 20.225000000091114 6.225000000079489 0 0 0
248 1 14.625000000060629 20.225000000059214 6.225000000061631 0 0 0
256 1 20.224999999879962 20.224999999907453 6.224999999844558 0 0 0
130 1 4.825000000110396 2.025000000056011 7.625000000064462 0 0 0
138 1 10.425000000181095 2.0250000002075588 7.6250000001967315 0 0 0
146 1 16.02500000008726 2.025000000074792 7.625000000056853 0 0 0
154 1 21.624999999980535 2.0249999999592965 7.6249999999547615 0 0 0
131 1 2.0250000000815227 4.8250000001219355 7.625000000064882 0 0 0
139 1 7.625000000228101 4.825000000230011 7.625000000248749 0 0 0
147 1 13.225000000271919 4.825000000227104 7.625000000205517 0 0 0
155 1 18.825000000079687 4.825000000068579 7.625000000089966 0 0 0
162 1 4.825000000223817 7.625000000205452 7.625000000205881 0 0 0
170 1 10.425000000297654 7.625000000343548 7.625000000309953 0 0 0
178 1 16.025000000265997 7.625000000209291 7.625000000198641 0 0 0
186 1 21.625000000135035 7.625000000106046 7.625000000124455 0 0 0
163 1 2.025000000154907 10.42500000014376 7.625000000116352 0 0 0
171 1 7.625000000280789 10.425000000257395 7.625000000280876 0 0 0
179 1 13.225000000311692 10.425000000330632 7.625000000269431 0 0 0
187 1 18.82500000013977 10.425000000178473 7.6250000001551825 0 0 0
194 1 4.8250000001303635 13.225000000162352 7.6250000001140705 0 0 0
202 1 10.425000000263198 13.225000000283345 7.625000000260788 0 0 0
210 1 16.025000000224058 13.225000000158628 7.625000000156549 0 0 0
218 1 21.625000000051205 13.225000000067645 7.625000000035401 0 0 0
195 1 2.0249999999971853 16.024999999993444 7.6249999999523626 0 0 0
203 1 7.625000000120455 16.025000000171612 7.625000000138737 0 0 0
211 1 13.22500000016648 16.025000000216462 7.625000000143788 0 0 0
219 1 18.82500000000659 16.0249999999994 7.624999999997213 0 0 0
226 1 4.8250000000110544 18.82499999999296 7.62499999999109 0 0 0
234 1 10.425000000157464 18.82500000013696 7.625000000127844 0 0 0
242 1 16.025000000043914 18.82500000003229 7.6250000000020295 0 0 0
250 1 21.624999999878977 18.824999999921108 7.624999999892378 0 0 0
227 1 2.0249999999335757 21.62499999994943 7.624999999907238 0 0 0
235 1 7.62500000007036 21.625000000109612 7.625000000109546 0 0 0
243 1 13.225000000123893 21.625000000126423 7.625000000077693 0 0 0
251 1 18.82499999995244 21.62499999991573 7.624999999934606 0 0 0
135 1 3.424999999999794 0.62499999999117 9.024999999965155 0 0 0
143 1 9.025000000117455 0.6250000001321027 9.025000000139864 0 0 0
151 1 14.625000000113793 0.6250000000937836 9.025000000079872 0 0 0
159 1 20.224999999951 0.6249999999133985 9.024999999957679 0 0 0
134 1 0.6250000000142252 3.4250000000132577 9.024999999995313 0 0 0
142 1 6.225000000135061 3.425000000144101 9.025000000128156 0 0 0
150 1 11.825000000193253 3.4250000002334136 9.025000000197752 0 0 0
158 1 17.42500000002375 3.425000000135475 9.02500000010356 0 0 0
167 1 3.425000000146708 6.2250000001439085 9.025000000110499 0 0 0
175 1 9.025000000282228 6.225000000250805 9.025000000280652 0 0 0
183 1 14.625000000279961 6.225000000243745 9.025000000235945 0 0 0
191 1 20.225000000100675 6.22500000008524 9.025000000132192 0 0 0
166 1 0.6250000001472343 9.025000000111106 9.025000000124558 0 0 0
174 1 6.225000000220076 9.025000000264933 9.025000000249545 0 0 0
182 1 11.825000000304447 9.025000000362073 9.025000000326644 0 0 0
190 1 17.42500000020772 9.025000000241272 9.025000000240059 0 0 0
199 1 3.425000000176729 11.825000000121932 9.025000000119787 0 0 0
207 1 9.025000000322022 11.825000000236649 9.025000000311016 0 0 0
215 1 14.625000000299718 11.82500000028572 9.025000000286756 0 0 0
223 1 20.225000000119575 11.825000000121195 9.025000000148014 0 0 0
198 1 0.6250000000148054 14.625000000025214 9.02500000000956 0 0 0
206 1 6.225000000132735 14.625000000178021 9.025000000157252 0 0 0
214 1 11.8250000002564 14.625000000255222 9.025000000265107 0 0 0
222 1 17.42500000012635 14.625000000133738 9.02500000015271 0 0 0
231 1 3.425000000036585 17.424999999946138 9.024999999983276 0 0 0
239 1 9.02500000016203 17.425000000143886 9.025000000175353 0 0 0
247 1 14.625000000135588 17.425000000151897 9.025000000129507 0 0 0
255 1 20.224999999972223 17.42499999991616 9.024999999974643 0 0 0
230 1 0.6249999998794334 20.224999999913575 9.024999999900443 0 0 0
238 1 6.225000000028109 20.225000000052038 9.025000000059093 0 0 0
246 1 11.825000000140795 20.225000000129977 9.025000000122578 0 0 0
254 1 17.424999999954924 20.22500000002109 9.024999999997986 0 0 0
261 1 0.624999999891603 0.624999999887194 11.824999999881557 0 0 0
269 1 6.225000000033533 0.6250000000492499 11.82500000003024 0 0 0
277 1 11.825000000088162 0.6250000001054536 11.82500000006351 0 0 0
285 1 17.42499999994007 0.6249999999605395 11.824999999938756 0 0 0
132 1 2.024999999980443 2.0249999999568464 10.425000000037155 0 0 0
264 1 3.4250000000252085 3.425000000006527 11.825000000003328 0 0 0
140 1 7.62500000012195 2.0250000001494564 10.425000000159274 0 0 0
272 1 9.025000000159302 3.4250000001901477 11.825000000115878 0 0 0
148 1 13.225000000155614 2.0250000001122985 10.425000000139873 0 0 0
280 1 14.625000000141595 3.425000000133361 11.82500000012358 0 0 0
156 1 18.824999999976335 2.0249999999876906 10.424999999972686 0 0 0
288 1 20.22499999997073 3.4250000000199856 11.824999999961912 0 0 0
129 1 4.825000000123386 4.825000000108823 10.425000000115448 0 0 0
137 1 10.425000000249256 4.825000000253975 10.42500000025535 0 0 0
145 1 16.025000000199395 4.825000000174623 10.425000000197903 0 0 0
153 1 21.625000000065583 4.8250000000477895 10.425000000070897 0 0 0
293 1 0.6250000000639696 6.225000000052925 11.825000000046494 0 0 0
301 1 6.225000000148575 6.2250000001487305 11.8250000001251 0 0 0
309 1 11.825000000245245 6.225000000243493 11.825000000213084 0 0 0
317 1 17.425000000116608 6.225000000153008 11.825000000146748 0 0 0
164 1 2.025000000129784 7.625000000095017 10.42500000016335 0 0 0
172 1 7.625000000247944 7.625000000278144 10.425000000255771 0 0 0
180 1 13.225000000296333 7.625000000267122 10.425000000283699 0 0 0
188 1 18.82500000013806 7.625000000132881 10.425000000157869 0 0 0
296 1 3.425000000155183 9.025000000116234 11.825000000104533 0 0 0
304 1 9.02500000027989 9.025000000301679 11.825000000246991 0 0 0
312 1 14.625000000269628 9.02500000025832 11.825000000272123 0 0 0
320 1 20.225000000115656 9.025000000127724 11.825000000082483 0 0 0
325 1 0.6250000000721391 11.825000000037084 11.82500000002566 0 0 0
161 1 4.8250000001899425 10.425000000200358 10.425000000188632 0 0 0
333 1 6.225000000173527 11.825000000174464 11.82500000015162 0 0 0
169 1 10.425000000330057 10.425000000344392 10.42500000035889 0 0 0
341 1 11.825000000290167 11.825000000276315 11.825000000285712 0 0 0
177 1 16.025000000245164 10.425000000213625 10.425000000226296 0 0 0
349 1 17.425000000144763 11.825000000149384 11.825000000175711 0 0 0
185 1 21.62500000008566 10.425000000087302 10.425000000069778 0 0 0
196 1 2.0250000000454014 13.22500000004944 10.42500000004726 0 0 0
204 1 7.625000000196173 13.225000000234042 10.425000000192345 0 0 0
212 1 13.225000000237308 13.225000000221117 10.4250000002719 0 0 0
220 1 18.825000000055862 13.225000000076538 10.425000000091543 0 0 0
328 1 3.4250000000505327 14.625000000019039 11.825000000028613 0 0 0
336 1 9.025000000205845 14.6250000002071 11.82500000018056 0 0 0
344 1 14.625000000190656 14.625000000168995 11.825000000172615 0 0 0
352 1 20.225000000002655 14.625000000021341 11.824999999984257 0 0 0
193 1 4.8250000000729685 16.025000000078702 10.42500000009021 0 0 0
201 1 10.425000000171405 16.02500000021362 10.425000000195396 0 0 0
209 1 16.02500000008281 16.025000000077732 10.425000000040596 0 0 0
217 1 21.624999999929486 16.024999999948186 10.42499999993641 0 0 0
357 1 0.6249999998951082 17.42499999987511 11.82499999986079 0 0 0
228 1 2.0249999999150927 18.82499999989463 10.424999999916675 0 0 0
365 1 6.225000000041663 17.425000000023157 11.825000000044342 0 0 0
236 1 7.625000000049788 18.825000000094366 10.425000000106955 0 0 0
373 1 11.825000000140543 17.425000000130737 11.825000000143005 0 0 0
244 1 13.225000000086423 18.825000000072567 10.42500000012322 0 0 0
252 1 18.82499999992302 18.824999999931475 10.424999999886374 0 0 0
381 1 17.42499999998764 17.42500000000483 11.824999999987241 0 0 0
360 1 3.424999999946809 20.22499999990713 11.824999999907352 0 0 0
368 1 9.025000000070818 20.225000000098632 11.825000000045337 0 0 0
376 1 14.6250000000461 20.225000000035116 11.82500000003297 0 0 0
384 1 20.22499999988235 20.22499999989987 11.824999999856425 0 0 0
225 1 4.825000000023909 21.62500000003052 10.425000000030677 0 0 0
233 1 10.425000000090138 21.625000000107555 10.42500000009197 0 0 0
241 1 16.025000000020356 21.624999999986052 10.424999999994277 0 0 0
249 1 21.6249999999117 21.624999999915918 10.424999999934396 0 0 0
258 1 4.824999999992543 2.024999999966924 13.224999999983574 0 0 0
266 1 10.42500000007425 2.025000000067937 13.225000000103906 0 0 0
274 1 16.025000000033103 2.0249999999408206 13.224999999983934 0 0 0
282 1 21.6249999999006 2.024999999870549 13.22499999989632 0 0 0
259 1 2.0249999999904182 4.82500000000524 13.224999999980145 0 0 0
267 1 7.6250000000984555 4.825000000113533 13.225000000153917 0 0 0
275 1 13.22500000014152 4.8250000001541595 13.225000000145773 0 0 0
283 1 18.824999999991974 4.825000000004675 13.225000000026775 0 0 0
290 1 4.825000000112775 7.62500000008036 13.225000000103993 0 0 0
298 1 10.425000000235901 7.625000000213276 13.22500000025027 0 0 0
306 1 16.025000000182494 7.625000000114297 13.22500000015013 0 0 0
314 1 21.625000000025054 7.625000000008691 13.225000000034171 0 0 0
291 1 2.0250000000149093 10.425000000037048 13.22500000002387 0 0 0
299 1 7.625000000150506 10.425000000206996 13.22500000021574 0 0 0
307 1 13.225000000217578 10.425000000253515 13.225000000212898 0 0 0
315 1 18.825000000049975 10.425000000041779 13.225000000066068 0 0 0
322 1 4.825000000054596 13.225000000035136 13.225000000059445 0 0 0
330 1 10.425000000194903 13.225000000186766 13.225000000201062 0 0 0
338 1 16.02500000009757 13.225000000061845 13.225000000056397 0 0 0
346 1 21.624999999943103 13.224999999937948 13.22499999994567 0 0 0
323 1 2.024999999863913 16.024999999941006 13.22499999988632 0 0 0
331 1 7.6250000000308304 16.02500000008469 13.225000000087157 0 0 0
339 1 13.225000000067544 16.0250000000913 13.225000000048162 0 0 0
347 1 18.824999999871316 16.024999999895222 13.224999999910686 0 0 0
354 1 4.8249999999424995 18.824999999911455 13.224999999922076 0 0 0
362 1 10.42500000002865 18.825000000047343 13.225000000044243 0 0 0
370 1 16.024999999931286 18.824999999891283 13.224999999918449 0 0 0
378 1 21.624999999814815 18.824999999787778 13.224999999830487 0 0 0
355 1 2.024999999843145 21.624999999877154 13.224999999842797 0 0 0
363 1 7.624999999977243 21.625000000005098 13.225000000023952 0 0 0
371 1 13.224999999993344 21.625000000015156 13.22499999998347 0 0 0
379 1 18.824999999821614 21.624999999835804 13.224999999876292 0 0 0
263 1 3.424999999871413 0.6249999998799528 14.624999999822464 0 0 0
271 1 9.02500000000789 0.6249999999655952 14.625000000010866 0 0 0
279 1 14.62499999997506 0.6249999999820107 14.624999999960016 0 0 0
287 1 20.224999999802453 0.624999999844049 14.624999999845654 0 0 0
262 1 0.6249999999054678 3.4249999998841054 14.624999999855303 0 0 0
270 1 6.2249999999749726 3.425000000027438 14.624999999999924 0 0 0
278 1 11.82500000006706 3.4250000000938594 14.625000000087121 0 0 0
286 1 17.424999999972037 3.424999999982191 14.624999999977982 0 0 0
295 1 3.4250000000246463 6.224999999996504 14.624999999974351 0 0 0
303 1 9.025000000146285 6.225000000126062 14.625000000164704 0 0 0
311 1 14.62500000012834 6.225000000164117 14.625000000125437 0 0 0
319 1 20.224999999975893 6.224999999982952 14.6249999999935 0 0 0
294 1 0.6249999999742375 9.025000000004008 14.624999999990187 0 0 0
302 1 6.225000000104265 9.025000000129745 14.6250000001252 0 0 0
310 1 11.825000000241342 9.025000000204706 14.62500000021453 0 0 0
318 1 17.425000000096855 9.02500000010739 14.625000000111523 0 0 0
327 1 3.425000000035998 11.824999999992215 14.62500000000867 0 0 0
335 1 9.025000000170968 11.825000000176018 14.625000000196176 0 0 0
343 1 14.62500000016782 11.825000000181122 14.625000000150711 0 0 0
351 1 20.224999999998982 11.824999999956747 14.625000000007478 0 0 0
326 1 0.6249999999015238 14.624999999887665 14.624999999894404 0 0 0
334 1 6.225000000057864 14.625000000027894 14.625000000051395 0 0 0
342 1 11.82500000014967 14.62500000012446 14.625000000130138 0 0 0
350 1 17.42499999995539 14.625000000013507 14.625000000004661 0 0 0
359 1 3.4249999998843013 17.42499999990228 14.624999999862926 0 0 0
367 1 9.025000000030843 17.425000000031048 14.625000000043501 0 0 0
375 1 14.625000000018625 17.424999999969206 14.6249999999887 0 0 0
383 1 20.224999999831567 17.42499999979889 14.624999999866997 0 0 0
358 1 0.6249999998156492 20.224999999770898 14.62499999978631 0 0 0
366 1 6.224999999923557 20.22499999992949 14.624999999913186 0 0 0
374 1 11.824999999983861 20.225000000004687 14.624999999986612 0 0 0
382 1 17.424999999826724 20.22499999987716 14.624999999893689 0 0 0
260 1 2.024999999810717 2.024999999782783 16.024999999847946 0 0 0
268 1 7.624999999932887 2.024999999951082 16.024999999942537 0 0 0
276 1 13.2249999999693 2.0249999999314556 16.02500000001108 0 0 0
284 1 18.824999999807066 2.0249999998134194 16.024999999880038 0 0 0
257 1 4.824999999962748 4.824999999960328 16.025000000002613 0 0 0
265 1 10.425000000104761 4.825000000111217 16.0250000001371 0 0 0
273 1 16.025000000011175 4.824999999967773 16.02499999998921 0 0 0
281 1 21.624999999855593 4.824999999836928 16.02499999988026 0 0 0
292 1 2.0249999999281703 7.624999999916826 16.02499999994632 0 0 0
300 1 7.6250000000691776 7.625000000098234 16.025000000119697 0 0 0
308 1 13.225000000130994 7.625000000090155 16.025000000190133 0 0 0
316 1 18.82499999995759 7.624999999948387 16.024999999979485 0 0 0
289 1 4.825000000042383 10.42500000004333 16.02500000005963 0 0 0
297 1 10.425000000126019 10.42500000013819 16.02500000015107 0 0 0
305 1 16.025000000050422 10.425000000023443 16.025000000042446 0 0 0
313 1 21.62499999991704 10.42499999993465 16.024999999963956 0 0 0
324 1 2.0249999998711616 13.224999999867288 16.02499999991621 0 0 0
332 1 7.625000000018608 13.225000000059888 16.025000000099457 0 0 0
340 1 13.225000000044304 13.225000000030166 16.025000000096174 0 0 0
348 1 18.82499999986736 13.224999999897154 16.024999999863997 0 0 0
321 1 4.8249999998812285 16.024999999906967 16.024999999887314 0 0 0
329 1 10.4249999999738 16.025000000013666 16.025000000013303 0 0 0
337 1 16.024999999911525 16.024999999896107 16.02499999992406 0 0 0
345 1 21.62499999978093 16.02499999979588 16.02499999981062 0 0 0
356 1 2.0249999997356345 18.824999999728362 16.0249999998303 0 0 0
364 1 7.624999999869238 18.82499999992004 16.024999999920897 0 0 0
372 1 13.224999999911438 18.824999999874336 16.02499999989982 0 0 0
380 1 18.82499999974029 18.82499999975254 16.0249999997615 0 0 0
353 1 4.824999999806466 21.624999999811905 16.024999999832655 0 0 0
361 1 10.424999999934213 21.62499999993403 16.024999999983084 0 0 0
369 1 16.024999999869184 21.62499999984637 16.024999999868303 0 0 0
377 1 21.624999999740407 21.624999999745427 16.024999999743507 0 0 0
389 1 0.6249999997347885 0.6249999997367252 17.42499999969226 0 0 0
397 1 6.22499999983049 0.6249999998454537 17.4249999998063 0 0 0
405 1 11.824999999923236 0.6249999999155975 17.424999999914725 0 0 0
413 1 17.4249999997778 0.6249999998099526 17.424999999800377 0 0 0
392 1 3.424999999849842 3.424999999827996 17.42499999981373 0 0 0
386 1 4.824999999813754 2.024999999796715 18.82499999981973 0 0 0
400 1 9.024999999991012 3.425000000012588 17.424999999916295 0 0 0
394 1 10.42499999993794 2.024999999947623 18.82499999994504 0 0 0
408 1 14.624999999973943 3.424999999978276 17.424999999956768 0 0 0
402 1 16.02499999989675 2.024999999843165 18.824999999823874 0 0 0
416 1 20.224999999803803 3.424999999847002 17.424999999809657 0 0 0
410 1 21.624999999741313 2.0249999997225663 18.824999999733677 0 0 0
387 1 2.0249999998237493 4.824999999817949 18.824999999823813 0 0 0
395 1 7.624999999980362 4.824999999960989 18.82499999999854 0 0 0
403 1 13.225000000037673 4.825000000031997 18.824999999987885 0 0 0
411 1 18.82499999984294 4.824999999848227 18.824999999850885 0 0 0
421 1 0.6249999998721926 6.224999999854504 17.424999999832064 0 0 0
429 1 6.224999999975269 6.224999999983951 17.42499999997623 0 0 0
437 1 11.825000000090622 6.2250000000941865 17.42500000008149 0 0 0
445 1 17.42499999993654 6.224999999971388 17.424999999940628 0 0 0
418 1 4.82499999995448 7.624999999966351 18.82499999995492 0 0 0
426 1 10.425000000104461 7.625000000106009 18.825000000100285 0 0 0
434 1 16.02500000001669 7.624999999959851 18.824999999974306 0 0 0
442 1 21.624999999855078 7.624999999851553 18.824999999866222 0 0 0
424 1 3.424999999971919 9.024999999953847 17.42499999990893 0 0 0
432 1 9.025000000117831 9.025000000132923 17.4250000000853 0 0 0
440 1 14.625000000110129 9.025000000091238 17.425000000108085 0 0 0
448 1 20.224999999930677 9.024999999949737 17.4249999998984 0 0 0
453 1 0.6249999998910614 11.824999999878514 17.424999999877613 0 0 0
419 1 2.0249999998963015 10.424999999909735 18.82499999987172 0 0 0
461 1 6.2250000000161085 11.825000000006566 17.425000000009913 0 0 0
427 1 7.625000000046346 10.425000000072973 18.82500000005894 0 0 0
469 1 11.825000000102623 11.825000000080284 17.425000000082132 0 0 0
435 1 13.22500000006555 10.425000000078947 18.82500000003843 0 0 0
443 1 18.824999999880028 10.4249999998647 18.824999999907792 0 0 0
477 1 17.424999999965312 11.82499999997328 17.42499999996551 0 0 0
450 1 4.824999999930036 13.22499999992715 18.824999999893972 0 0 0
458 1 10.42500000003114 13.225000000032662 18.825000000019685 0 0 0
466 1 16.024999999920567 13.224999999899227 18.824999999895375 0 0 0
474 1 21.624999999790276 13.224999999826995 18.824999999809005 0 0 0
456 1 3.424999999903918 14.624999999858861 17.424999999855377 0 0 0
464 1 9.025000000035797 14.625000000039607 17.425000000018954 0 0 0
472 1 14.624999999998748 14.62499999997971 17.424999999989037 0 0 0
480 1 20.224999999826508 14.624999999852289 17.42499999979006 0 0 0
451 1 2.024999999767802 16.02499999980116 18.82499999972465 0 0 0
459 1 7.624999999875418 16.024999999915735 18.82499999991208 0 0 0
467 1 13.224999999905917 16.024999999921558 18.824999999885176 0 0 0
475 1 18.824999999755406 16.02499999975801 18.82499999976426 0 0 0
485 1 0.6249999997367167 17.424999999710106 17.424999999725046 0 0 0
482 1 4.824999999782067 18.824999999762916 18.824999999749355 0 0 0
493 1 6.224999999872826 17.42499999985792 17.424999999845685 0 0 0
490 1 10.424999999844632 18.824999999874162 18.824999999893233 0 0 0
501 1 11.824999999955542 17.424999999949886 17.42499999993477 0 0 0
498 1 16.024999999797938 18.824999999772785 18.824999999767655 0 0 0
509 1 17.42499999980794 17.424999999819008 17.42499999982602 0 0 0
506 1 21.624999999686928 18.82499999969487 18.824999999661795 0 0 0
488 1 3.4249999997705682 20.22499999974194 17.424999999758203 0 0 0
496 1 9.024999999890579 20.22499999991191 17.424999999862298 0 0 0
504 1 14.62499999988506 20.224999999855328 17.424999999833847 0 0 0
512 1 20.22499999972961 20.2249999997548 17.424999999682672 0 0 0
483 1 2.0249999996945176 21.624999999727983 18.824999999675647 0 0 0
491 1 7.6249999998124345 21.624999999829495 18.824999999857823 0 0 0
499 1 13.224999999882098 21.624999999851482 18.82499999984208 0 0 0
507 1 18.824999999719825 21.624999999711658 18.82499999970841 0 0 0
391 1 3.424999999743096 0.6249999997034708 20.224999999711923 0 0 0
399 1 9.024999999867266 0.6249999998508905 20.224999999887885 0 0 0
407 1 14.624999999872866 0.6249999998868847 20.224999999841216 0 0 0
415 1 20.224999999715532 0.6249999996907385 20.22499999972055 0 0 0
390 1 0.6249999997225714 3.4249999997553857 20.224999999750285 0 0 0
398 1 6.224999999849217 3.424999999885408 20.224999999881394 0 0 0
406 1 11.824999999974317 3.4249999999921434 20.224999999956587 0 0 0
414 1 17.424999999826767 3.424999999892626 20.22499999985182 0 0 0
423 1 3.4249999998831666 6.224999999866097 20.224999999860913 0 0 0
431 1 9.025000000041889 6.225000000019352 20.225000000038676 0 0 0
439 1 14.625000000038296 6.225000000016761 20.22500000000821 0 0 0
447 1 20.224999999840204 6.224999999824603 20.224999999870334 0 0 0
422 1 0.624999999862085 9.024999999867473 20.2249999998661 0 0 0
430 1 6.225000000005382 9.025000000021961 20.22500000000151 0 0 0
438 1 11.825000000092793 9.025000000110074 20.22500000010317 0 0 0
446 1 17.424999999904376 9.024999999986022 20.22499999999332 0 0 0
455 1 3.4249999999402387 11.824999999900792 20.22499999988628 0 0 0
463 1 9.025000000076098 11.825000000033922 20.22500000007592 0 0 0
471 1 14.625000000037234 11.82500000000138 20.225000000028313 0 0 0
479 1 20.224999999855058 11.824999999827467 20.224999999894138 0 0 0
454 1 0.6249999998119052 14.624999999787011 20.224999999783037 0 0 0
462 1 6.224999999903464 14.624999999937216 20.22499999992911 0 0 0
470 1 11.824999999979392 14.624999999990107 20.22500000000142 0 0 0
478 1 17.424999999832973 14.62499999987497 20.22499999988439 0 0 0
487 1 3.424999999796403 17.42499999975129 20.224999999736603 0 0 0
495 1 9.024999999902814 17.42499999983204 20.224999999927867 0 0 0
503 1 14.624999999880538 17.42499999985303 20.224999999868057 0 0 0
511 1 20.22499999973306 17.424999999721305 20.224999999746892 0 0 0
486 1 0.6249999996702563 20.22499999968583 20.224999999657264 0 0 0
494 1 6.2249999997557035 20.22499999979132 20.224999999793503 0 0 0
502 1 11.824999999853663 20.22499999985777 20.224999999879223 0 0 0
510 1 17.424999999737175 20.224999999786416 20.224999999771953 0 0 0
388 1 2.024999999772373 2.024999999745074 21.624999999769873 0 0 0
396 1 7.62499999990209 2.0249999999251083 21.62499999994233 0 0 0
404 1 13.224999999958447 2.0249999999272648 21.624999999976588 0 0 0
412 1 18.824999999786673 2.024999999786573 21.624999999759773 0 0 0
385 1 4.824999999953773 4.824999999947457 21.624999999925812 0 0 0
393 1 10.425000000053084 4.825000000053717 21.625000000060123 0 0 0
401 1 16.024999999978117 4.824999999929763 21.624999999956405 0 0 0
409 1 21.62499999982762 4.824999999831059 21.624999999834063 0 0 0
420 1 2.0249999999102664 7.624999999894903 21.624999999944805 0 0 0
428 1 7.625000000063863 7.625000000084635 21.62500000007865 0 0 0
436 1 13.22500000010093 7.6250000000553575 21.625000000083592 0 0 0
444 1 18.824999999905994 7.624999999922827 21.62499999989459 0 0 0
417 1 4.824999999998854 10.424999999993831 21.62499999998743 0 0 0
425 1 10.425000000097159 10.425000000116295 21.625000000125894 0 0 0
433 1 16.02500000003201 10.425000000018942 21.62500000000405 0 0 0
441 1 21.624999999893518 10.424999999902477 21.624999999877357 0 0 0
452 1 2.0249999998639905 13.22499999984887 21.62499999988837 0 0 0
460 1 7.624999999978027 13.225000000031086 21.624999999987892 0 0 0
468 1 13.225000000015537 13.224999999997314 21.625000000011863 0 0 0
476 1 18.82499999985262 13.224999999883591 21.624999999858154 0 0 0
449 1 4.824999999844821 16.024999999873597 21.624999999857234 0 0 0
457 1 10.424999999961983 16.024999999979556 21.62499999996752 0 0 0
465 1 16.0249999998796 16.024999999866942 21.624999999832763 0 0 0
473 1 21.624999999758163 16.024999999779663 21.624999999746592 0 0 0
484 1 2.0249999997146606 18.82499999970701 21.624999999709566 0 0 0
492 1 7.624999999841805 18.824999999870208 21.62499999983384 0 0 0
500 1 13.224999999895706 18.824999999856697 21.624999999900755 0 0 0
508 1 18.82499999971843 18.824999999743593 21.62499999973346 0 0 0
481 1 4.824999999786573 21.624999999778208 21.62499999978382 0 0 0
489 1 10.424999999913712 21.62499999992322 21.62499999990302 0 0 0
497 1 16.024999999841864 21.62499999982436 21.624999999805105 0 0 0
505 1 21.624999999699646 21.62499999969977 21.624999999710067 0 0 0

Velocities

5 -6.019599141833033 -6.019648108195772 -6.019625468102044
13 -6.019404091252992 -6.019348200106767 -6.019320935936968
21 -6.019557578329232 -6.019607921990367 -6.019597322739443
29 -6.019465960058128 -6.01940103980323 -6.01939486986384
8 2.8428774830887096 2.8428607142498454 -2.9539609080678284
16 2.843006837043544 2.843028610584258 -2.953987591832352
24 2.8429404055356753 2.8429144973963307 -2.9539232321147657
32 2.8429752637000654 2.843003272586754 -2.9539576119568913
37 -6.019530636047462 -6.019588936120773 -6.019554727994098
45 -6.019393740013289 -6.019342782441016 -6.019327254418733
53 -6.019577767857858 -6.019632752185909 -6.019613002863548
61 -6.0194294791266 -6.019388038001036 -6.019348710906433
40 2.8429313529800404 2.8429059913231596 -2.953964614745747
48 2.8430429786404177 2.843064453826753 -2.953952184462149
56 2.842903079733716 2.842884243354205 -2.9539236096563957
64 2.8429723452028184 2.842990502366295 -2.9539980511821393
69 -6.019555372094179 -6.019601071923882 -6.019591892780053
77 -6.019452408071874 -6.019401436239305 -6.019385366215602
85 -6.019605551021375 -6.019652601226309 -6.01962707885132
93 -6.019413967924826 -6.0193539197090375 -6.019334867337545
72 2.8429354776878175 2.8429241028544636 -2.9539170462512554
80 2.8429810262894453 2.8429981902949684 -2.953952556867191
88 2.8428668378173496 2.842846235001362 -2.9539738657388073
96 2.8430180000356824 2.8430413324922967 -2.9539842404664394
101 -6.019584523459464 -6.019645433589608 -6.019623745162751
109 -6.019437796172373 -6.0193832230909585 -6.019353893801874
117 -6.019531137796363 -6.019588779418722 -6.019557389450496
125 -6.019381592325291 -6.019336508767528 -6.01931175429146
104 2.842896726223531 2.842870391549135 -2.9539375811051207
112 2.842977950518165 2.8429971668475256 -2.9539954146686487
120 2.842936987433322 2.842917244934836 -2.9539581430092148
128 2.843038937260445 2.8430547468996483 -2.953946718061391
7 2.842870490757749 -2.9539364414735934 2.842857141008268
15 2.8429873627030475 -2.9539552884335234 2.843027362624437
23 2.842922537074786 -2.9538814579556627 2.8429066454250598
31 2.8429699920330753 -2.9539235112224134 2.842992863234782
6 -2.9540295613658056 2.842887650900818 2.8428910485698724
2 2.9538659413613875 -2.843012150776733 -2.8429940060041967
14 -2.9538383399162504 2.8429646306219376 2.8429829079098146
10 2.954019384603897 -2.8429470430900055 -2.8429439552286597
22 -2.953979908787867 2.842937554514483 2.842947575280002
18 2.9538051974452837 -2.843039021207347 -2.843043973324448
30 -2.953811076838992 2.842952543301264 2.8429474497796074
26 2.9540227253700055 -2.842993293945112 -2.8429832345087127
3 -2.843029085994305 2.953961721969079 -2.8430327224490575
11 -2.8429236690876096 2.953903554622445 -2.8429015774726225
19 -2.8430561421956386 2.9538972388392293 -2.843075643902611
27 -2.842974803659714 2.953911060938156 -2.842940649695515
39 2.842902187953132 -2.95390936910116 2.84289920571989
47 2.843020980110383 -2.953890969563366 2.843049191107079
55 2.8428932956258692 -2.9538757482029676 2.8428709209906335
63 2.842953024861317 -2.9539548049134283 2.842984105237052
34 2.953835226455712 -2.8429841933596163 -2.842983804009095
42 2.95398317279374 -2.8429753948432657 -2.8429758177012543
50 2.9538284980967786 -2.8430515801636687 -2.8430324306956947
58 2.954055565299125 -2.842944168760465 -2.8429253458539754
38 -2.9540272835462105 2.8429244055696445 2.842946768970345
46 -2.953796085547665 2.8430052190144988 2.843011981518077
54 -2.9539906411210373 2.842915492662073 2.8429118904933706
62 -2.95385440175555 2.8429352973159645 2.8429482015849907
35 -2.8430082370339536 2.9539483796815595 -2.8430232337189594
71 2.8429246175193157 -2.953880253506872 2.8429147170155553
43 -2.842958854020415 2.953889528716476 -2.8429401681643536
79 2.842974449991515 -2.953924308658786 2.8429912283976257
51 -2.843073145054539 2.9539458986822478 -2.8430783909005046
87 2.8428528786775016 -2.9539458886900762 2.842843586344066
59 -2.8429252582350695 2.9539556750022085 -2.842890940992335
95 2.8429992812727756 -2.9539476738737895 2.84303584597965
66 2.9537970018020663 -2.8430476927485766 -2.843044693797022
74 2.9540216077078068 -2.843004578454391 -2.842991080940516
82 2.953875808778868 -2.842996552198426 -2.8429873304238678
90 2.954016976130414 -2.842942170582365 -2.84294383379134
70 -2.953972570058107 2.8429438095017265 2.842945254910586
78 -2.9538066262402203 2.8429503924282775 2.8429500439018542
86 -2.9540435454628144 2.8428698768536615 2.8428812018200853
94 -2.9538344931134715 2.842980505391613 2.8429937751851853
67 -2.843065687827325 2.9538965067272343 -2.8430860822243775
75 -2.842981085473644 2.953902518105278 -2.842946092379878
83 -2.8430147058917163 2.9539716143080796 -2.8430215751948693
91 -2.8429235081087127 2.953902009885653 -2.84289852551837
103 2.842880891128308 -2.9538847071543146 2.8428599617037005
98 2.9538426645158364 -2.843034254514584 -2.8430214320918887
111 2.8429600250121374 -2.953946361746895 2.8429890583505246
106 2.9540494932452903 -2.8429433198953746 -2.842927697902985
119 2.842914243924502 -2.953906169704102 2.8429109593197373
114 2.953827991222964 -2.8429929565721386 -2.842983359604093
127 2.8430159413266196 -2.9538895630916944 2.8430446075307594
122 2.9539823261592564 -2.842990152058565 -2.8429846144564386
102 -2.9539999336445693 2.842900198263609 2.8429055862149424
110 -2.953855990839837 2.8429435921116912 2.8429534350257777
118 -2.9540183871705574 2.842933532152839 2.842949917624959
126 -2.9537936823423765 2.842997490905861 2.843010345430714
99 -2.8430546749991015 2.9539560153412054 -2.8430630492110534
107 -2.8429271436131827 2.9539577947778084 -2.8428891454924985
115 -2.8430109514629964 2.9539456316072585 -2.843031619870319
123 -2.842971578914064 2.9538844213042013 -2.8429472089491465
4 -2.8430096659197672 -2.8430314770224334 2.953929543870045
12 -2.8429166915078556 -2.842897700819306 2.953879110479213
20 -2.8430505932887815 -2.843065174563944 2.9538630829634522
28 -2.842956829901558 -2.8429327162707865 2.9538692719787836
1 6.019280784164746 6.01923003528332 6.019257152331314
9 6.019477513983713 6.01953211392018 6.019554817547711
17 6.019332338323982 6.0192841731683995 6.019290124141057
25 6.01943269267014 6.019495521239141 6.019506118605077
36 -2.8429966839278897 -2.8430120970643205 2.9539035509015776
44 -2.8429436511916983 -2.8429245043267306 2.9538318059247586
52 -2.8430436391087355 -2.8430680098991763 2.9538852451723745
60 -2.8429018514558506 -2.8428863300209026 2.95390921385981
33 6.01934986041802 6.0192953782881675 6.019322085688927
41 6.019495752868572 6.019546281621993 6.019558840894983
49 6.019313285521437 6.019255665128841 6.019282383601951
57 6.0194602241847965 6.019500676014771 6.01954103455185
68 -2.8430532703667093 -2.8430766910473855 2.953857977120725
76 -2.842962706981312 -2.8429412110640895 2.9538658241751143
84 -2.8430020071279425 -2.843018146715756 2.9539435003227865
92 -2.8429171559773474 -2.8428904857774784 2.953872042089494
65 6.01933202868544 6.019283666985549 6.019291816210923
73 6.0194403993002785 6.019493790840967 6.019512979624683
81 6.019288585128723 6.019242824827416 6.019266786038622
89 6.019464494081332 6.019526071992387 6.019539136108933
100 -2.8430318774388326 -2.843053118025845 2.953898074254692
108 -2.8429050582669064 -2.842882630827658 2.953905162553367
116 -2.8429930764989773 -2.8430233260947824 2.9538958922084166
124 -2.8429555045294634 -2.8429366512744876 2.95383065898569
97 6.019315936799947 6.019257339459109 6.019280316346022
105 6.019446676237874 6.019502735957444 6.0195330536633165
113 6.019348320400176 6.019286627036047 6.019315572641166
121 6.019506247265553 6.019552247738583 6.019573349000294
133 -6.0194316867732525 -6.0194832030385514 -6.019512949691224
141 -6.019321005483194 -6.0192652108857745 -6.0192975261266435
149 -6.019519342571728 -6.019561015855495 -6.019585258352222
157 -6.019344721166167 -6.019286489743911 -6.0193091140044075
136 2.8429299392883776 2.8429084818418486 -2.953890502693549
144 2.8430345914294466 2.843052903134157 -2.9538861566222514
152 2.842923480047034 2.842906069133055 -2.953845229132752
160 2.842996833694563 2.843024753257199 -2.9539113586656116
165 -6.019446222422506 -6.019498398887169 -6.019525973018293
173 -6.019342712100033 -6.019295214471805 -6.019306130956347
181 -6.0194622072287 -6.019522817146513 -6.019528718124786
189 -6.019271142343878 -6.0192261217333485 -6.01924899032006
168 2.84295612381714 2.8429392900215364 -2.953856734405069
176 2.8430299825740595 2.8430506210806215 -2.9538693837846886
184 2.84291263931535 2.8428903283049793 -2.9538908962700137
192 2.8430353685229144 2.8430496171711646 -2.953925544295774
197 -6.019510772312834 -6.019566134615633 -6.019580613950296
205 -6.019344960604783 -6.019286722568416 -6.019306053838426
213 -6.019446254121309 -6.019491755088411 -6.0195296675854575
221 -6.0193159343854346 -6.019255233436268 -6.019289226791953
200 2.8429186961354773 2.842897901576551 -2.9538477312055313
208 2.842994637875185 2.843012466733739 -2.9539176477120876
216 2.8429344044173135 2.8429176981189723 -2.9538949699594137
224 2.843038296575169 2.843065748730021 -2.953871487165744
229 -6.019471504719529 -6.0195273666233815 -6.019543148166145
237 -6.019269424514546 -6.0192174302552255 -6.019243143239131
245 -6.019434758457358 -6.019499079928314 -6.0195175833629735
253 -6.019350088496009 -6.019300552906425 -6.019309365734191
232 2.842923681199762 2.8429002456343766 -2.953888347299422
240 2.843033147256335 2.843057064198458 -2.9539193835508475
248 2.8429616077217084 2.8429326795059615 -2.9538512433207593
256 2.843016310699614 2.8430338794965566 -2.953883033365721
130 2.9538293352998566 -2.842952770093272 -2.8429678004653822
138 2.95399261072773 -2.8429212670029536 -2.8429290738049433
146 2.9538169611571488 -2.842994401329034 -2.8429984576717375
154 2.9540288211054904 -2.84291067861613 -2.842920595155822
131 -2.8429693517484225 2.953922364353282 -2.8430024533225327
139 -2.842899466035289 2.9538754891844627 -2.8428837163463876
147 -2.8430132677478155 2.953915936738824 -2.843032473502497
155 -2.8428885424255164 2.953914443817283 -2.842882389620071
162 2.953799886689947 -2.842967485489868 -2.8429709591538836
170 2.9539952545925 -2.8429419325840253 -2.842936833445843
178 2.9538462962283663 -2.8429522271880705 -2.842961747576359
186 2.9540158022208267 -2.8428800926392186 -2.8428977406845886
163 -2.842991577854136 2.953918789476944 -2.843014990407163
171 -2.842924174710195 2.953899781802181 -2.842903270874848
179 -2.842971755586005 2.9539601134602673 -2.843006988262849
187 -2.8428647043582287 2.9539155321112265 -2.842857701702497
194 2.9538226037234567 -2.8429959185709226 -2.8429965711592304
202 2.9540338207023242 -2.842903384087218 -2.842922376880048
210 2.9538301096444104 -2.84293948240927 -2.8429589923144025
218 2.953979888435934 -2.842939295107951 -2.8429392160054983
195 -2.843011136982358 2.953914820786749 -2.8430337309225964
203 -2.8428840621016995 2.953917825025715 -2.8428741859350257
211 -2.842956983911289 2.9539282435807737 -2.842995562920505
219 -2.8429196601444278 2.953866670345018 -2.8428981922462313
226 2.95384367264327 -2.8429489846730904 -2.842961557858018
234 2.9540065530461446 -2.842890809644621 -2.8428992368672312
242 2.9537998951810365 -2.8429801996036255 -2.8429776885288818
250 2.9540071953693388 -2.8429269909068973 -2.8429283404459724
227 -2.842970916545741 2.9539602257562136 -2.843002717611785
235 -2.8428721168876727 2.9539156575485297 -2.8428680563604365
243 -2.842997545270608 2.953911329404532 -2.843020042458334
251 -2.842910666065584 2.9539114729005447 -2.8428907313779543
135 2.842946648712851 -2.9539378866432986 2.842917907823358
143 2.8430582766726853 -2.953937348757776 2.8430620947645684
151 2.842945223631515 -2.953900694205841 2.8429169287073335
159 2.843014860010224 -2.9539642306606746 2.8430379566393627
134 -2.9540332757999823 2.842963271436772 2.8429560106946203
142 -2.9538227934866996 2.8430353413732186 2.843020783032804
150 -2.9540021200646853 2.8429645928346314 2.8429537887566543
158 -2.9538445654878878 2.8429944254697697 2.8429895735197404
167 2.842975381985334 -2.953888758375106 2.842940885342017
175 2.8430477702955903 -2.953911096495469 2.8430589113594413
183 2.8429178574759266 -2.953924900833304 2.842900554012453
191 2.843043069150375 -2.9539498061140668 2.8430538792334215
166 -2.954005855232228 2.8430003762548206 2.8429827608766667
174 -2.9538124907149554 2.8430301642311493 2.8430206193917966
182 -2.9540380170732203 2.8429382536740673 2.842943275253216
190 -2.9538551908815007 2.8430255546396097 2.843022087483515
199 2.8429391051765673 -2.953908948384458 2.842912278982606
207 2.8430054553571416 -2.953966455103169 2.8430265757203035
215 2.84295229075736 -2.9539380053193467 2.8429230250422526
223 2.8430689075805837 -2.9539281716251318 2.843073313295623
198 -2.953999978875557 2.8429547743200723 2.842948765847609
206 -2.95385479148393 2.842983862449159 2.842987111301455
214 -2.954035143315681 2.842970744598404 2.842958246288767
222 -2.9538114676372023 2.843049898149862 2.8430268368557408
231 2.842930363529978 -2.953916357863023 2.8429087559107975
239 2.8430473236706653 -2.9539471258586043 2.843061833604322
247 2.8429798051010997 -2.953887464728626 2.842939343821051
255 2.8430279194871515 -2.9539195215006124 2.8430450663450437
230 -2.95403457306312 2.8429519926708173 2.8429538782555883
238 -2.9538492165578623 2.843029759518565 2.8430202972821412
246 -2.9540016297694263 2.842996753450327 2.842985252524118
254 -2.9538256735676964 2.8430104851036635 2.8430100074566367
261 -6.01958156631825 -6.019629096783012 -6.019604884341204
269 -6.01946682245146 -6.01940563223862 -6.019388250158031
277 -6.019579511361268 -6.019623870366309 -6.019616227304568
285 -6.019400504144932 -6.019348148551136 -6.019333951230544
132 -2.842993810743746 -2.843011889919654 2.9539745447011905
264 2.842930722053057 2.8429108278257984 -2.953925052073873
140 -2.8429164187605576 -2.842892811397505 2.9539232460278404
272 2.8430086277606 2.843030572420527 -2.9539414112681173
148 -2.843030502144338 -2.843045719072318 2.9539685852340054
280 2.842871796535613 2.8428593282467123 -2.953966033106852
156 -2.8429099381730816 -2.8428937948651702 2.953970301054142
288 2.8429903592898724 2.8430086435272277 -2.9539971880956384
129 6.019448969567004 6.019398416722519 6.019366699826455
137 6.019580723550659 6.019637843244748 6.019608885550461
145 6.019371999896264 6.019330429698527 6.019308297033186
153 6.019532634438941 6.019586387442097 6.019562495485737
293 -6.019583182154498 -6.019642513302147 -6.019611429082296
301 -6.0194037669209495 -6.019358659318294 -6.01933470300697
309 -6.019531216562348 -6.019592046662424 -6.0195705997268805
317 -6.0194149323348585 -6.019360548031983 -6.019331532436031
164 -2.8429991558289105 -2.8430191436950194 2.95394327090973
172 -2.842929325245949 -2.842913484328126 2.9539341059347475
180 -2.842989584519314 -2.8430153344796785 2.9540018172229723
188 -2.8428839492597753 -2.8428593044331603 2.9539474538962263
296 2.842925576236639 2.8429082412955715 -2.9539141771742616
304 2.842974943021477 2.842991041658054 -2.953997002225179
312 2.842908253294635 2.8428823366593665 -2.953981694633606
320 2.8430418072584858 2.8430637092806723 -2.95394687304623
325 -6.019580643427195 -6.019632982834667 -6.019622224678898
161 6.019453430311954 6.019400588265866 6.019377878278708
333 -6.0194126236491705 -6.019348164158401 -6.019342007520523
169 6.019543257552162 6.0195892212707545 6.019583330412234
341 -6.019577187654448 -6.0196264135810305 -6.019603791290862
177 6.019419997602944 6.019357871520546 6.019347045441974
349 -6.019459081351802 -6.019403516002783 -6.019376467501454
185 6.019613757619069 6.019661754035917 6.0196343661029
196 -2.8430280020883045 -2.8430499501611735 2.953972923357214
204 -2.8429124267088377 -2.842883522884054 2.9539772815431378
212 -2.842981643218397 -2.8430007608027315 2.9539745705187643
220 -2.842929832809373 -2.8429083786274147 2.9539103959384923
328 2.842875176367984 2.842850372470156 -2.953972140758638
336 2.842987136967145 2.843014152731772 -2.9540024750787923
344 2.8429440332142404 2.842926631974769 -2.953910541754919
352 2.8429961452322274 2.8430195261518953 -2.953943120608533
193 6.019383920257397 6.019329029237141 6.019315415952253
201 6.0195346303202815 6.019597066809513 6.0195703182994045
209 6.019440729378188 6.019394798697474 6.019353663769226
217 6.019577731639466 6.019636763158781 6.019609664856416
357 -6.019524649841105 -6.019580637182244 -6.019562015582159
228 -2.8429899791866076 -2.8430092782127474 2.9539954764217846
365 -6.019406597776689 -6.0193642280456725 -6.019326464465458
236 -2.8428849816587287 -2.8428724315782308 2.953942646159594
373 -6.019585539179894 -6.019642965933736 -6.019609939052446
244 -2.8430043164655676 -2.843029391965004 2.9539399847633803
252 -2.8429226831285948 -2.8429013608921103 2.9539483809247873
381 -6.019419286532837 -6.019367698039146 -6.019353256308606
360 2.842912593315728 2.842893211796516 -2.9539675916825634
368 2.8430384869462877 2.8430538822385616 -2.9539495096259967
376 2.842922612140856 2.8428946233480263 -2.9539199520539796
384 2.8429776565419096 2.8429988319672432 -2.9540019772674144
225 6.01940411104646 6.019350049997123 6.019329317895057
233 6.019612689411685 6.019661178851287 6.019635994125582
241 6.019461862241498 6.019398555424483 6.019384218243135
249 6.0195495897250915 6.019600089581484 6.019590568827939
258 2.953812087062578 -2.843025037833722 -2.8430149872710744
266 2.954000614268965 -2.843001991187491 -2.8430025401108634
274 2.9538604097143324 -2.8430203722670067 -2.843016482110381
282 2.954038091423755 -2.842945904647176 -2.8429313947262824
259 -2.843044051318956 2.953907846248655 -2.84304959190739
267 -2.8429816326301793 2.9538862981652922 -2.8429572277220885
275 -2.8430362975143035 2.9539607391527305 -2.8430577178867664
283 -2.8429231768325405 2.953916886379691 -2.842886665354172
290 2.9538129824904122 -2.843050858161701 -2.843042354548618
298 2.954045731807236 -2.842960564235615 -2.842956013172802
306 2.953856664534949 -2.8429744950243556 -2.8429629115609343
314 2.9539854964167476 -2.8429709138480064 -2.8429562125493035
291 -2.843071657324016 2.9539295869020745 -2.8430907512004193
299 -2.8429425798066474 2.9539470488594413 -2.842918658835643
307 -2.8429952467852595 2.9539696455795514 -2.843004580270495
315 -2.8429574383037224 2.953891363450966 -2.8429178763771756
322 2.95386947175936 -2.843010074586206 -2.8430152968250626
330 2.9540360415624947 -2.8429344174809126 -2.8429244519105947
338 2.9537997510008074 -2.843041411111031 -2.843023463701082
346 2.9540044386048376 -2.8430062080409653 -2.8430032821251943
323 -2.843029117170302 2.9539618344441942 -2.843047250996179
331 -2.842915247712167 2.9539254247976348 -2.8428816940231
339 -2.8430574472923316 2.9538966856223947 -2.843062048574111
347 -2.8429847455582165 2.9538869868722264 -2.842961184822488
354 2.9538438835015146 -2.8429939412343006 -2.842972958552468
362 2.9539900307079296 -2.8429744254584848 -2.842953792118429
370 2.953818590422879 -2.84304548521532 -2.8430434834128215
378 2.954047858438251 -2.8429486623600964 -2.842947301144458
355 -2.843015089168045 2.953962721628092 -2.8430187810314265
363 -2.842952853451159 2.953891467213104 -2.842918942744628
371 -2.8430665091815186 2.9539337512145925 -2.843082500418121
379 -2.8429316810702123 2.953953846601944 -2.842911469528274
263 2.842916726129954 -2.9538956026690357 2.842908304097471
271 2.8429902374369194 -2.9539034744845596 2.8430256312320066
279 2.8428610320001217 -2.9539281283849963 2.8428500597349844
287 2.842983971507782 -2.9539677435392386 2.8430021625429713
262 -2.953993457757789 2.842934311134495 2.8429457985683046
270 -2.9537910665318816 2.8429696430214344 2.8429830423107476
278 -2.954022478534125 2.842878924884274 2.842880461785841
286 -2.953849518810656 2.8429610228004987 2.842960863037034
295 2.8429029764914078 -2.9538623616764434 2.8429003303970766
303 2.8429518948828907 -2.953940254115005 2.8429793737595164
311 2.842892299932129 -2.9539287778473815 2.8428702455230583
319 2.8430238778635997 -2.953897588313743 2.8430542292250136
294 -2.953973058400921 2.8429251130587776 2.8429398703029123
302 -2.9538433499786523 2.8429338347994015 2.842945222256323
310 -2.954044964736616 2.8429120499980294 2.8429159306149168
318 -2.953805763703655 2.8430105961983365 2.843019017210786
327 2.8428571959773685 -2.953930390736321 2.8428421050773256
335 2.842981725550075 -2.9539685269844265 2.843003417796818
343 2.842937086774755 -2.9538864953997 2.84292261681057
351 2.842976437298552 -2.9539111902721245 2.843017928399402
326 -2.9540277090221 2.8428733637561696 2.8428830428038037
334 -2.9538552730070022 2.8429632881936504 2.842957942777211
342 -2.9539802542568814 2.8429535626150075 2.8429565033017883
350 -2.953792117705216 2.842955626663643 2.8429737054914064
359 2.842903389282865 -2.9539181658208333 2.842881652201741
367 2.8430195878722984 -2.9539049759499383 2.843049460676801
375 2.8428936483633653 -2.9538628990094016 2.8428895649502732
383 2.842955961261134 -2.953938738338758 2.842985525552812
358 -2.954033460263911 2.8429250231672087 2.842922737643156
366 -2.9538051892396577 2.842998806571427 2.8430132877848333
374 -2.9539836854514068 2.84291291471333 2.842936832923603
382 -2.953843976677487 2.8429399585773534 2.842948333317559
260 -2.843031482408034 -2.843047054534515 2.9538802032481004
268 -2.842975158502882 -2.842950217324452 2.9538567294385083
276 -2.843023908127126 -2.8430492036352497 2.9539228304737226
284 -2.842904800555553 -2.8428827694053562 2.953880993685959
257 6.019318262256562 6.019271659081527 6.0192969452949985
265 6.019414110122254 6.0194764167958645 6.019490613698799
273 6.019302719671994 6.019253527190536 6.019262831562321
281 6.019490468201136 6.0195429577680235 6.019563064182029
292 -2.843053393645877 -2.8430810015067625 2.953881285858297
300 -2.8429260913625836 -2.8429067485097765 2.953895211772204
308 -2.842972282652399 -2.8429931583075803 2.9539133872622036
316 -2.8429349535072 -2.84291014095775 2.9538400162957332
289 6.019299066830548 6.019236353452002 6.019266955841279
297 6.019475941490372 6.019522526322242 6.019544795222995
305 6.019367678615574 6.0193079163469765 6.019332446261419
313 6.019478782821182 6.019533393193525 6.019565314186108
324 -2.8430236882329996 -2.843036536470218 2.953927799335142
332 -2.8428972640488994 -2.8428737168742773 2.9538836516111067
340 -2.8430379785831477 -2.8430604872729126 2.953864772976146
348 -2.8429778915811674 -2.8429572635088336 2.953862956898818
321 6.0193023441549975 6.019254286837245 6.019260579132129
329 6.019482732484538 6.019547244913789 6.01955796833093
337 6.019313571009014 6.019262932471132 6.019290210681533
345 6.019429477986471 6.0194842255359875 6.019506820070652
356 -2.842985474080626 -2.8430101785996933 2.953901258191785
364 -2.8429295034052915 -2.8429162369743515 2.9538447356387403
372 -2.843055268836665 -2.843073232061512 2.9538884639656913
380 -2.842916522423997 -2.8428977233956907 2.9538951769804096
353 6.0193621802354365 6.019304942868694 6.019331773167071
361 6.019489713733124 6.019532347422281 6.019572331043115
369 6.0193012832845705 6.019246944801738 6.019273748228553
377 6.019465702251068 6.019516369587529 6.019529073329148
389 -6.019499303269027 -6.019544758999462 -6.0195830519100575
397 -6.019339313719296 -6.019277926687448 -6.019311880630773
405 -6.0194587123824235 -6.019512235635796 -6.01952715966348
413 -6.019323300271674 -6.019263942822108 -6.01928371913085
392 2.842922874862169 2.842906969108531 -2.9538503080266305
386 2.9538159852290318 -2.842998195275501 -2.843018868420583
400 2.8429748487669944 2.8430005647820633 -2.953920100924045
394 2.9540439464270576 -2.842910994992242 -2.8429121749302166
408 2.8429297028906846 2.8429080153899555 -2.953890759245182
402 2.9538377176118704 -2.842937386018732 -2.842939056236103
416 2.8430589924771987 2.8430777493376778 -2.9538666219183285
410 2.9539711185554505 -2.842931936051841 -2.8429522537340315
387 -2.8430164164355247 2.9539135571749853 -2.843055771103974
395 -2.8428895392253306 2.9539314277746995 -2.842870636727645
403 -2.8429507264557703 2.9539302066572612 -2.8429762294951164
411 -2.842913409600288 2.9538530950480655 -2.8429041184954675
421 -6.019457321744279 -6.019523028640817 -6.019540644943052
429 -6.019296147306096 -6.019247118760884 -6.019254826183598
437 -6.019448648753797 -6.019504067911051 -6.01951878561956
445 -6.019323667500239 -6.019272363471738 -6.019296768681025
418 2.9538646997158304 -2.842950001342356 -2.8429503503792994
426 2.9540217863150167 -2.842866414687791 -2.842871040579852
434 2.953778506059447 -2.8429762709069535 -2.8429917769820032
442 2.953991868346313 -2.842948340972507 -2.8429599764719597
424 2.8428954301524647 2.8428691362192975 -2.953899952172986
432 2.8430281112475426 2.8430458354976924 -2.9539262262013537
440 2.8429895474241245 2.8429668982466287 -2.953838212976379
448 2.8430225279937162 2.843048960098784 -2.9538738607161537
453 -6.019466252693026 -6.019509475196953 -6.019532557895646
419 -2.84297014571719 2.9539750850013657 -2.8429931527997274
461 -6.019321809189362 -6.019264418473172 -6.019285394415906
427 -2.8428504869541835 2.953925856124697 -2.8428331609598034
469 -6.019486716940598 -6.019537999656394 -6.019566532974122
435 -2.8429987618399513 2.953894553034942 -2.8430335986329953
443 -2.842932428921169 2.9538990530247906 -2.8429289945585134
477 -6.019346567048164 -6.019291222523242 -6.01932236669775
450 2.953832572160482 -2.842934411401057 -2.8429407527641426
458 2.953963287640265 -2.8429389092685997 -2.8429513126156647
466 2.953813155189865 -2.843012230381333 -2.843029325008145
474 2.954057920749674 -2.842892264492842 -2.84290253174007
456 2.842933155073935 2.842916906065703 -2.953888132695347
464 2.8430636886717955 2.843090375016275 -2.9538607866045674
472 2.842920883441105 2.842898925057507 -2.9538443490707307
480 2.842969806726999 2.842989560598202 -2.9539329982239937
451 -2.84295526075185 2.9539313207719853 -2.84297521955418
459 -2.8429160066307926 2.9538500826979233 -2.8429124803799906
467 -2.843028149138227 2.9539068059047726 -2.843064110545537
475 -2.842872246532887 2.9539391646226463 -2.8428571210906632
485 -6.0194395056035646 -6.019500836944151 -6.019506654024061
482 2.9537821895529763 -2.8429818871797132 -2.8429914627007467
493 -6.019325488167984 -6.019280056111012 -6.019302591315494
490 2.9539998890078265 -2.842940533658011 -2.8429585810691615
501 -6.019471719662202 -6.019522746697471 -6.019550010764694
498 2.9538633661235294 -2.842940596066373 -2.8429441872906374
509 -6.019291963235194 -6.019244248373955 -6.019254629099402
506 2.9540111362790276 -2.8428839390231304 -2.842879137392529
488 2.84297671738043 2.8429539251915648 -2.9538406048346415
496 2.8430268631746864 2.8430382970591372 -2.9538801786509685
504 2.842892752055586 2.8428735779350047 -2.9539045890923226
512 2.8430402825624994 2.843060496644242 -2.9539120997475488
483 -2.843000827448991 2.953897368396643 -2.843036612449556
491 -2.8429223079184913 2.9539014790421363 -2.84291787870927
499 -2.8429619275418823 2.953984252977992 -2.8429883376695884
507 -2.842865679091841 2.9539158261765386 -2.8428453808974385
391 2.842940901311289 -2.9538937798845746 2.8429109327660558
399 2.8430050055994918 -2.953977094152999 2.8430062325192713
407 2.8429505140892157 -2.953952613585657 2.842921065567638
415 2.843069307437517 -2.9539163767284426 2.843089804546719
390 -2.9539902991534963 2.8429601007852576 2.842945963760967
398 -2.953861797570898 2.8429843559837806 2.842959876440969
406 -2.954044909549163 2.842964823194347 2.842957055095541
414 -2.953804904893659 2.8430487673866036 2.843050552845835
423 2.8429137211918887 -2.9539381577990813 2.8428724669264924
431 2.843038821255965 -2.9539647349640314 2.843053049338537
439 2.842996165590684 -2.9538678116784367 2.842972101408904
447 2.843035899478053 -2.9539034032276454 2.8430497806804373
422 -2.9540501352581114 2.8429336194546004 2.842918656831038
430 -2.953870642925058 2.843021767159971 2.843018297207492
438 -2.9539863026444615 2.8430181566075494 2.843016695774781
446 -2.953804843270286 2.8430212925741536 2.8430087845907046
455 2.8429548153617934 -2.953945419840162 2.842925825649939
463 2.843080901697624 -2.95391534261301 2.843100867987669
471 2.8429378883996255 -2.9538937980678788 2.8429064465889144
479 2.8429927966998148 -2.95398661099379 2.842996061085991
454 -2.954044910978947 2.8429755479200667 2.842962730476431
462 -2.953795572031072 2.843059584995109 2.843052899305591
470 -2.9539890371291277 2.842953746376675 2.8429442340866076
478 -2.9538706086703868 2.842971528465265 2.8429551010904186
487 2.842982315971535 -2.953874822601023 2.8429642397797763
495 2.8430340427114316 -2.9539046504875164 2.843041910214489
503 2.8429122582337114 -2.953936465889621 2.8428752697353596
511 2.843057689132388 -2.953953848670182 2.843068202425664
486 -2.9539875766797743 2.843002179609053 2.843006861821284
494 -2.953811454745172 2.843013590064637 2.8430100838641437
502 -2.95405578994899 2.8429342757254368 2.842916391949137
510 -2.9538561562321672 2.8430396994491054 2.8430300562445274
388 -2.8430406119308307 -2.8430592323754733 2.953961697173214
396 -2.8428997477600175 -2.842879724427766 2.953976440990541
404 -2.8429669055944937 -2.8429907470078875 2.9539898778581986
412 -2.842941795448574 -2.8429122248651106 2.953914479328157
385 6.019388595093173 6.019342336801439 6.019302370413773
393 6.019545407784362 6.019604907141528 6.019579068648534
401 6.019432758542828 6.0193774716488475 6.019365130671758
409 6.019564471965252 6.0196257674368425 6.019599843101524
420 -2.8429759314300522 -2.842998551814128 2.954006047983846
428 -2.8428625827672653 -2.8428406391949803 2.953965085261637
436 -2.8430170076239833 -2.843036279408384 2.953931966627112
444 -2.8429452389359615 -2.8429302194474477 2.9539279643583525
417 6.019430264326572 6.019366231979599 6.01935355433361
425 6.019598500973841 6.019649144231301 6.019640901523218
433 6.019435196902821 6.019380023893196 6.01936113151884
441 6.019563982762638 6.019610596301815 6.019586924772962
452 -2.8429719693069586 -2.8429855217139455 2.9539854330617037
460 -2.842937606119282 -2.8429217545812073 2.953906780636441
468 -2.8430516603691185 -2.8430705140079007 2.9539600985843544
476 -2.842889415558582 -2.8428640726082706 2.953988438587415
449 6.019420349922213 6.0193793608673305 6.019357539630688
457 6.019562302584766 6.01961752972048 6.019593944150302
465 6.019399868764789 6.0193498422586655 6.0193184526172745
473 6.019550750431708 6.019607799249363 6.019578628522209
484 -2.8430182351892794 -2.843044387380712 2.953939059981645
492 -2.842942009365675 -2.8429195566225802 2.9539334179715855
500 -2.842969186108902 -2.842991933850807 2.95400857231374
508 -2.8428711619334712 -2.8428557135203256 2.9539497652957674
481 6.019448214142107 6.019386866890977 6.019376141062243
489 6.01956242150549 6.019612095113208 6.019584599877409
497 6.0194223821053345 6.019369868635808 6.019347428714123
505 6.019592352673921 6.019637987720452 6.019632204730968
