LAMMPS data file via write_data, version 7 Feb 2024, timestep = 10076, units = metal

8 atoms
1 atom types

0.08401052198108352 5.515989478018927 xlo xhi
0.08401052198108352 5.515989478018927 ylo yhi
0.08401052198108352 5.515989478018927 zlo zhi
0 0 0 xy xz yz

Masses

1 28.0855

Atoms # atomic

5 1 0.6902581733211653 0.6902581733211635 0.6902581733211641 0 0 0
8 1 3.406247651361994 3.4062476513619924 0.6902581733113514 0 0 0
7 1 3.4062476513619933 0.690258173311351 3.406247651361993 0 0 0
6 1 0.6902581733113523 3.406247651361993 3.406247651361993 0 0 0
2 1 4.7642423903662205 2.048252912315578 2.048252912315579 0 0 0
3 1 2.0482529123155793 4.764242390366219 2.0482529123155784 0 0 0
4 1 2.0482529123155793 2.0482529123155775 4.7642423903662205 0 0 0
1 1 4.764242390356408 4.764242390356406 4.764242390356406 0 0 0

Velocities

5 0 0 0
8 0 0 0
7 0 0 0
6 0 0 0
2 0 0 0
3 0 0 0
4 0 0 0
1 0 0 0
