ITEM: TIMESTEP
0
ITEM: NUMBER OF ATOMS
8
ITEM: BOX BOUNDS xy xz yz pp pp pp
0.0000000000000000e+00 5.5999999999999996e+00 0.0000000000000000e+00
0.0000000000000000e+00 5.5999999999999996e+00 0.0000000000000000e+00
0.0000000000000000e+00 5.5999999999999996e+00 0.0000000000000000e+00
ITEM: ATOMS x y z
0.68125 0.68125 0.68125
3.40625 3.40625 0.68125
3.40625 0.68125 3.40625
0.68125 3.40625 3.40625
4.76875 2.04375 2.04375
2.04375 4.76875 2.04375
2.04375 2.04375 4.76875
4.76875 4.76875 4.76875
ITEM: TIMESTEP
10
ITEM: NUMBER OF ATOMS
8
ITEM: BOX BOUNDS xy xz yz pp pp pp
0.0000000000000000e+00 5.5999999999999996e+00 0.0000000000000000e+00
0.0000000000000000e+00 5.5999999999999996e+00 0.0000000000000000e+00
0.0000000000000000e+00 5.5999999999999996e+00 0.0000000000000000e+00
ITEM: ATOMS x y z
0.68125 0.68125 0.68125
3.40625 3.40625 0.68125
3.40625 0.68125 3.40625
0.68125 3.40625 3.40625
4.76875 2.04375 2.04375
2.04375 4.76875 2.04375
2.04375 2.04375 4.76875
4.76875 4.76875 4.76875
ITEM: TIMESTEP
20
ITEM: NUMBER OF ATOMS
8
ITEM: BOX BOUNDS xy xz yz pp pp pp
0.0000000000000000e+00 5.5999999999999996e+00 0.0000000000000000e+00
0.0000000000000000e+00 5.5999999999999996e+00 0.0000000000000000e+00
0.0000000000000000e+00 5.5999999999999996e+00 0.0000000000000000e+00
ITEM: ATOMS x y z
0.68125 0.68125 0.68125
3.40625 3.40625 0.68125
3.40625 0.68125 3.40625
0.68125 3.40625 3.40625
4.76875 2.04375 2.04375
2.04375 4.76875 2.04375
2.04375 2.04375 4.76875
4.76875 4.76875 4.76875
ITEM: TIMESTEP
30
ITEM: NUMBER OF ATOMS
8
ITEM: BOX BOUNDS xy xz yz pp pp pp
0.0000000000000000e+00 5.5999999999999996e+00 0.0000000000000000e+00
0.0000000000000000e+00 5.5999999999999996e+00 0.0000000000000000e+00
0.0000000000000000e+00 5.5999999999999996e+00 0.0000000000000000e+00
ITEM: ATOMS x y z
0.68125 0.68125 0.68125
3.40625 3.40625 0.68125
3.40625 0.68125 3.40625
0.68125 3.40625 3.40625
4.76875 2.04375 2.04375
2.04375 4.76875 2.04375
2.04375 2.04375 4.76875
4.76875 4.76875 4.76875
ITEM: TIMESTEP
40
ITEM: NUMBER OF ATOMS
8
ITEM: BOX BOUNDS xy xz yz pp pp pp
0.0000000000000000e+00 5.5999999999999996e+00 0.0000000000000000e+00
0.0000000000000000e+00 5.5999999999999996e+00 0.0000000000000000e+00
0.0000000000000000e+00 5.5999999999999996e+00 0.0000000000000000e+00
ITEM: ATOMS x y z
0.68125 0.68125 0.68125
3.40625 3.40625 0.68125
3.40625 0.68125 3.40625
0.68125 3.40625 3.40625
4.76875 2.04375 2.04375
2.04375 4.76875 2.04375
2.04375 2.04375 4.76875
4.76875 4.76875 4.76875
ITEM: TIMESTEP
50
ITEM: NUMBER OF ATOMS
8
ITEM: BOX BOUNDS xy xz yz pp pp pp
0.0000000000000000e+00 5.5999999999999996e+00 0.0000000000000000e+00
0.0000000000000000e+00 5.5999999999999996e+00 0.0000000000000000e+00
0.0000000000000000e+00 5.5999999999999996e+00 0.0000000000000000e+00
ITEM: ATOMS x y z
0.68125 0.68125 0.68125
3.40625 3.40625 0.68125
3.40625 0.68125 3.40625
0.68125 3.40625 3.40625
4.76875 2.04375 2.04375
2.04375 4.76875 2.04375
2.04375 2.04375 4.76875
4.76875 4.76875 4.76875
ITEM: TIMESTEP
60
ITEM: NUMBER OF ATOMS
8
ITEM: BOX BOUNDS xy xz yz pp pp pp
0.0000000000000000e+00 5.5999999999999996e+00 0.0000000000000000e+00
0.0000000000000000e+00 5.5999999999999996e+00 0.0000000000000000e+00
0.0000000000000000e+00 5.5999999999999996e+00 0.0000000000000000e+00
ITEM: ATOMS x y z
0.68125 0.68125 0.68125
3.40625 3.40625 0.68125
3.40625 0.68125 3.40625
0.68125 3.40625 3.40625
4.76875 2.04375 2.04375
2.04375 4.76875 2.04375
2.04375 2.04375 4.76875
4.76875 4.76875 4.76875
ITEM: TIMESTEP
70
ITEM: NUMBER OF ATOMS
8
ITEM: BOX BOUNDS xy xz yz pp pp pp
0.0000000000000000e+00 5.5999999999999996e+00 0.0000000000000000e+00
0.0000000000000000e+00 5.5999999999999996e+00 0.0000000000000000e+00
0.0000000000000000e+00 5.5999999999999996e+00 0.0000000000000000e+00
ITEM: ATOMS x y z
0.68125 0.68125 0.68125
3.40625 3.40625 0.68125
3.40625 0.68125 3.40625
0.68125 3.40625 3.40625
4.76875 2.04375 2.04375
2.04375 4.76875 2.04375
2.04375 2.04375 4.76875
4.76875 4.76875 4.76875
ITEM: TIMESTEP
80
ITEM: NUMBER OF ATOMS
8
ITEM: BOX BOUNDS xy xz yz pp pp pp
0.0000000000000000e+00 5.5999999999999996e+00 0.0000000000000000e+00
0.0000000000000000e+00 5.5999999999999996e+00 0.0000000000000000e+00
0.0000000000000000e+00 5.5999999999999996e+00 0.0000000000000000e+00
ITEM: ATOMS x y z
0.68125 0.68125 0.68125
3.40625 3.40625 0.68125
3.40625 0.68125 3.40625
0.68125 3.40625 3.40625
4.76875 2.04375 2.04375
2.04375 4.76875 2.04375
2.04375 2.04375 4.76875
4.76875 4.76875 4.76875
ITEM: TIMESTEP
90
ITEM: NUMBER OF ATOMS
8
ITEM: BOX BOUNDS xy xz yz pp pp pp
0.0000000000000000e+00 5.5999999999999996e+00 0.0000000000000000e+00
0.0000000000000000e+00 5.5999999999999996e+00 0.0000000000000000e+00
0.0000000000000000e+00 5.5999999999999996e+00 0.0000000000000000e+00
ITEM: ATOMS x y z
0.68125 0.68125 0.68125
3.40625 3.40625 0.68125
3.40625 0.68125 3.40625
0.68125 3.40625 3.40625
4.76875 2.04375 2.04375
2.04375 4.76875 2.04375
2.04375 2.04375 4.76875
4.76875 4.76875 4.76875
ITEM: TIMESTEP
100
ITEM: NUMBER OF ATOMS
8
ITEM: BOX BOUNDS xy xz yz pp pp pp
0.0000000000000000e+00 5.5999999999999996e+00 0.0000000000000000e+00
0.0000000000000000e+00 5.5999999999999996e+00 0.0000000000000000e+00
0.0000000000000000e+00 5.5999999999999996e+00 0.0000000000000000e+00
ITEM: ATOMS x y z
0.68125 0.68125 0.68125
3.40625 3.40625 0.68125
3.40625 0.68125 3.40625
0.68125 3.40625 3.40625
4.76875 2.04375 2.04375
2.04375 4.76875 2.04375
2.04375 2.04375 4.76875
4.76875 4.76875 4.76875
ITEM: TIMESTEP
110
ITEM: NUMBER OF ATOMS
8
ITEM: BOX BOUNDS xy xz yz pp pp pp
0.0000000000000000e+00 5.5999999999999996e+00 0.0000000000000000e+00
0.0000000000000000e+00 5.5999999999999996e+00 0.0000000000000000e+00
0.0000000000000000e+00 5.5999999999999996e+00 0.0000000000000000e+00
ITEM: ATOMS x y z
0.68125 0.68125 0.68125
3.40625 3.40625 0.68125
3.40625 0.68125 3.40625
0.68125 3.40625 3.40625
4.76875 2.04375 2.04375
2.04375 4.76875 2.04375
2.04375 2.04375 4.76875
4.76875 4.76875 4.76875
ITEM: TIMESTEP
120
ITEM: NUMBER OF ATOMS
8
ITEM: BOX BOUNDS xy xz yz pp pp pp
0.0000000000000000e+00 5.5999999999999996e+00 0.0000000000000000e+00
0.0000000000000000e+00 5.5999999999999996e+00 0.0000000000000000e+00
0.0000000000000000e+00 5.5999999999999996e+00 0.0000000000000000e+00
ITEM: ATOMS x y z
0.68125 0.68125 0.68125
3.40625 3.40625 0.68125
3.40625 0.68125 3.40625
0.68125 3.40625 3.40625
4.76875 2.04375 2.04375
2.04375 4.76875 2.04375
2.04375 2.04375 4.76875
4.76875 4.76875 4.76875
ITEM: TIMESTEP
130
ITEM: NUMBER OF ATOMS
8
ITEM: BOX BOUNDS xy xz yz pp pp pp
0.0000000000000000e+00 5.5999999999999996e+00 0.0000000000000000e+00
0.0000000000000000e+00 5.5999999999999996e+00 0.0000000000000000e+00
0.0000000000000000e+00 5.5999999999999996e+00 0.0000000000000000e+00
ITEM: ATOMS x y z
0.68125 0.68125 0.68125
3.40625 3.40625 0.68125
3.40625 0.68125 3.40625
0.68125 3.40625 3.40625
4.76875 2.04375 2.04375
2.04375 4.76875 2.04375
2.04375 2.04375 4.76875
4.76875 4.76875 4.76875
ITEM: TIMESTEP
140
ITEM: NUMBER OF ATOMS
8
ITEM: BOX BOUNDS xy xz yz pp pp pp
0.0000000000000000e+00 5.5999999999999996e+00 0.0000000000000000e+00
0.0000000000000000e+00 5.5999999999999996e+00 0.0000000000000000e+00
0.0000000000000000e+00 5.5999999999999996e+00 0.0000000000000000e+00
ITEM: ATOMS x y z
0.68125 0.68125 0.68125
3.40625 3.40625 0.68125
3.40625 0.68125 3.40625
0.68125 3.40625 3.40625
4.76875 2.04375 2.04375
2.04375 4.76875 2.04375
2.04375 2.04375 4.76875
4.76875 4.76875 4.76875
ITEM: TIMESTEP
150
ITEM: NUMBER OF ATOMS
8
ITEM: BOX BOUNDS xy xz yz pp pp pp
0.0000000000000000e+00 5.5999999999999996e+00 0.0000000000000000e+00
0.0000000000000000e+00 5.5999999999999996e+00 0.0000000000000000e+00
0.0000000000000000e+00 5.5999999999999996e+00 0.0000000000000000e+00
ITEM: ATOMS x y z
0.68125 0.68125 0.68125
3.40625 3.40625 0.68125
3.40625 0.68125 3.40625
0.68125 3.40625 3.40625
4.76875 2.04375 2.04375
2.04375 4.76875 2.04375
2.04375 2.04375 4.76875
4.76875 4.76875 4.76875
ITEM: TIMESTEP
160
ITEM: NUMBER OF ATOMS
8
ITEM: BOX BOUNDS xy xz yz pp pp pp
0.0000000000000000e+00 5.5999999999999996e+00 0.0000000000000000e+00
0.0000000000000000e+00 5.5999999999999996e+00 0.0000000000000000e+00
0.0000000000000000e+00 5.5999999999999996e+00 0.0000000000000000e+00
ITEM: ATOMS x y z
0.68125 0.68125 0.68125
3.40625 3.40625 0.68125
3.40625 0.68125 3.40625
0.68125 3.40625 3.40625
4.76875 2.04375 2.04375
2.04375 4.76875 2.04375
2.04375 2.04375 4.76875
4.76875 4.76875 4.76875
ITEM: TIMESTEP
170
ITEM: NUMBER OF ATOMS
8
ITEM: BOX BOUNDS xy xz yz pp pp pp
0.0000000000000000e+00 5.5999999999999996e+00 0.0000000000000000e+00
0.0000000000000000e+00 5.5999999999999996e+00 0.0000000000000000e+00
0.0000000000000000e+00 5.5999999999999996e+00 0.0000000000000000e+00
ITEM: ATOMS x y z
0.68125 0.68125 0.68125
3.40625 3.40625 0.68125
3.40625 0.68125 3.40625
0.68125 3.40625 3.40625
4.76875 2.04375 2.04375
2.04375 4.76875 2.04375
2.04375 2.04375 4.76875
4.76875 4.76875 4.76875
ITEM: TIMESTEP
180
ITEM: NUMBER OF ATOMS
8
ITEM: BOX BOUNDS xy xz yz pp pp pp
0.0000000000000000e+00 5.5999999999999996e+00 0.0000000000000000e+00
0.0000000000000000e+00 5.5999999999999996e+00 0.0000000000000000e+00
0.0000000000000000e+00 5.5999999999999996e+00 0.0000000000000000e+00
ITEM: ATOMS x y z
0.68125 0.68125 0.68125
3.40625 3.40625 0.68125
3.40625 0.68125 3.40625
0.68125 3.40625 3.40625
4.76875 2.04375 2.04375
2.04375 4.76875 2.04375
2.04375 2.04375 4.76875
4.76875 4.76875 4.76875
ITEM: TIMESTEP
190
ITEM: NUMBER OF ATOMS
8
ITEM: BOX BOUNDS xy xz yz pp pp pp
0.0000000000000000e+00 5.5999999999999996e+00 0.0000000000000000e+00
0.0000000000000000e+00 5.5999999999999996e+00 0.0000000000000000e+00
0.0000000000000000e+00 5.5999999999999996e+00 0.0000000000000000e+00
ITEM: ATOMS x y z
0.68125 0.68125 0.68125
3.40625 3.40625 0.68125
3.40625 0.68125 3.40625
0.68125 3.40625 3.40625
4.76875 2.04375 2.04375
2.04375 4.76875 2.04375
2.04375 2.04375 4.76875
4.76875 4.76875 4.76875
ITEM: TIMESTEP
200
ITEM: NUMBER OF ATOMS
8
ITEM: BOX BOUNDS xy xz yz pp pp pp
0.0000000000000000e+00 5.5999999999999996e+00 0.0000000000000000e+00
0.0000000000000000e+00 5.5999999999999996e+00 0.0000000000000000e+00
0.0000000000000000e+00 5.5999999999999996e+00 0.0000000000000000e+00
ITEM: ATOMS x y z
0.68125 0.68125 0.68125
3.40625 3.40625 0.68125
3.40625 0.68125 3.40625
0.68125 3.40625 3.40625
4.76875 2.04375 2.04375
2.04375 4.76875 2.04375
2.04375 2.04375 4.76875
4.76875 4.76875 4.76875
ITEM: TIMESTEP
210
ITEM: NUMBER OF ATOMS
8
ITEM: BOX BOUNDS xy xz yz pp pp pp
0.0000000000000000e+00 5.5999999999999996e+00 0.0000000000000000e+00
0.0000000000000000e+00 5.5999999999999996e+00 0.0000000000000000e+00
0.0000000000000000e+00 5.5999999999999996e+00 0.0000000000000000e+00
ITEM: ATOMS x y z
0.68125 0.68125 0.68125
3.40625 3.40625 0.68125
3.40625 0.68125 3.40625
0.68125 3.40625 3.40625
4.76875 2.04375 2.04375
2.04375 4.76875 2.04375
2.04375 2.04375 4.76875
4.76875 4.76875 4.76875
ITEM: TIMESTEP
220
ITEM: NUMBER OF ATOMS
8
ITEM: BOX BOUNDS xy xz yz pp pp pp
0.0000000000000000e+00 5.5999999999999996e+00 0.0000000000000000e+00
0.0000000000000000e+00 5.5999999999999996e+00 0.0000000000000000e+00
0.0000000000000000e+00 5.5999999999999996e+00 0.0000000000000000e+00
ITEM: ATOMS x y z
0.68125 0.68125 0.68125
3.40625 3.40625 0.68125
3.40625 0.68125 3.40625
0.68125 3.40625 3.40625
4.76875 2.04375 2.04375
2.04375 4.76875 2.04375
2.04375 2.04375 4.76875
4.76875 4.76875 4.76875
ITEM: TIMESTEP
230
ITEM: NUMBER OF ATOMS
8
ITEM: BOX BOUNDS xy xz yz pp pp pp
0.0000000000000000e+00 5.5999999999999996e+00 0.0000000000000000e+00
0.0000000000000000e+00 5.5999999999999996e+00 0.0000000000000000e+00
0.0000000000000000e+00 5.5999999999999996e+00 0.0000000000000000e+00
ITEM: ATOMS x y z
0.68125 0.68125 0.68125
3.40625 3.40625 0.68125
3.40625 0.68125 3.40625
0.68125 3.40625 3.40625
4.76875 2.04375 2.04375
2.04375 4.76875 2.04375
2.04375 2.04375 4.76875
4.76875 4.76875 4.76875
ITEM: TIMESTEP
240
ITEM: NUMBER OF ATOMS
8
ITEM: BOX BOUNDS xy xz yz pp pp pp
0.0000000000000000e+00 5.5999999999999996e+00 0.0000000000000000e+00
0.0000000000000000e+00 5.5999999999999996e+00 0.0000000000000000e+00
0.0000000000000000e+00 5.5999999999999996e+00 0.0000000000000000e+00
ITEM: ATOMS x y z
0.68125 0.68125 0.68125
3.40625 3.40625 0.68125
3.40625 0.68125 3.40625
0.68125 3.40625 3.40625
4.76875 2.04375 2.04375
2.04375 4.76875 2.04375
2.04375 2.04375 4.76875
4.76875 4.76875 4.76875
ITEM: TIMESTEP
250
ITEM: NUMBER OF ATOMS
8
ITEM: BOX BOUNDS xy xz yz pp pp pp
0.0000000000000000e+00 5.5999999999999996e+00 0.0000000000000000e+00
0.0000000000000000e+00 5.5999999999999996e+00 0.0000000000000000e+00
0.0000000000000000e+00 5.5999999999999996e+00 0.0000000000000000e+00
ITEM: ATOMS x y z
0.68125 0.68125 0.68125
3.40625 3.40625 0.68125
3.40625 0.68125 3.40625
0.68125 3.40625 3.40625
4.76875 2.04375 2.04375
2.04375 4.76875 2.04375
2.04375 2.04375 4.76875
4.76875 4.76875 4.76875
ITEM: TIMESTEP
260
ITEM: NUMBER OF ATOMS
8
ITEM: BOX BOUNDS xy xz yz pp pp pp
0.0000000000000000e+00 5.5999999999999996e+00 0.0000000000000000e+00
0.0000000000000000e+00 5.5999999999999996e+00 0.0000000000000000e+00
0.0000000000000000e+00 5.5999999999999996e+00 0.0000000000000000e+00
ITEM: ATOMS x y z
0.68125 0.68125 0.68125
3.40625 3.40625 0.68125
3.40625 0.68125 3.40625
0.68125 3.40625 3.40625
4.76875 2.04375 2.04375
2.04375 4.76875 2.04375
2.04375 2.04375 4.76875
4.76875 4.76875 4.76875
ITEM: TIMESTEP
270
ITEM: NUMBER OF ATOMS
8
ITEM: BOX BOUNDS xy xz yz pp pp pp
0.0000000000000000e+00 5.5999999999999996e+00 0.0000000000000000e+00
0.0000000000000000e+00 5.5999999999999996e+00 0.0000000000000000e+00
0.0000000000000000e+00 5.5999999999999996e+00 0.0000000000000000e+00
ITEM: ATOMS x y z
0.68125 0.68125 0.68125
3.40625 3.40625 0.68125
3.40625 0.68125 3.40625
0.68125 3.40625 3.40625
4.76875 2.04375 2.04375
2.04375 4.76875 2.04375
2.04375 2.04375 4.76875
4.76875 4.76875 4.76875
ITEM: TIMESTEP
280
ITEM: NUMBER OF ATOMS
8
ITEM: BOX BOUNDS xy xz yz pp pp pp
0.0000000000000000e+00 5.5999999999999996e+00 0.0000000000000000e+00
0.0000000000000000e+00 5.5999999999999996e+00 0.0000000000000000e+00
0.0000000000000000e+00 5.5999999999999996e+00 0.0000000000000000e+00
ITEM: ATOMS x y z
0.68125 0.68125 0.68125
3.40625 3.40625 0.68125
3.40625 0.68125 3.40625
0.68125 3.40625 3.40625
4.76875 2.04375 2.04375
2.04375 4.76875 2.04375
2.04375 2.04375 4.76875
4.76875 4.76875 4.76875
ITEM: TIMESTEP
290
ITEM: NUMBER OF ATOMS
8
ITEM: BOX BOUNDS xy xz yz pp pp pp
0.0000000000000000e+00 5.5999999999999996e+00 0.0000000000000000e+00
0.0000000000000000e+00 5.5999999999999996e+00 0.0000000000000000e+00
0.0000000000000000e+00 5.5999999999999996e+00 0.0000000000000000e+00
ITEM: ATOMS x y z
0.68125 0.68125 0.68125
3.40625 3.40625 0.68125
3.40625 0.68125 3.40625
0.68125 3.40625 3.40625
4.76875 2.04375 2.04375
2.04375 4.76875 2.04375
2.04375 2.04375 4.76875
4.76875 4.76875 4.76875
ITEM: TIMESTEP
300
ITEM: NUMBER OF ATOMS
8
ITEM: BOX BOUNDS xy xz yz pp pp pp
0.0000000000000000e+00 5.5999999999999996e+00 0.0000000000000000e+00
0.0000000000000000e+00 5.5999999999999996e+00 0.0000000000000000e+00
0.0000000000000000e+00 5.5999999999999996e+00 0.0000000000000000e+00
ITEM: ATOMS x y z
0.68125 0.68125 0.68125
3.40625 3.40625 0.68125
3.40625 0.68125 3.40625
0.68125 3.40625 3.40625
4.76875 2.04375 2.04375
2.04375 4.76875 2.04375
2.04375 2.04375 4.76875
4.76875 4.76875 4.76875
ITEM: TIMESTEP
310
ITEM: NUMBER OF ATOMS
8
ITEM: BOX BOUNDS xy xz yz pp pp pp
0.0000000000000000e+00 5.5999999999999996e+00 0.0000000000000000e+00
0.0000000000000000e+00 5.5999999999999996e+00 0.0000000000000000e+00
0.0000000000000000e+00 5.5999999999999996e+00 0.0000000000000000e+00
ITEM: ATOMS x y z
0.68125 0.68125 0.68125
3.40625 3.40625 0.68125
3.40625 0.68125 3.40625
0.68125 3.40625 3.40625
4.76875 2.04375 2.04375
2.04375 4.76875 2.04375
2.04375 2.04375 4.76875
4.76875 4.76875 4.76875
ITEM: TIMESTEP
320
ITEM: NUMBER OF ATOMS
8
ITEM: BOX BOUNDS xy xz yz pp pp pp
0.0000000000000000e+00 5.5999999999999996e+00 0.0000000000000000e+00
0.0000000000000000e+00 5.5999999999999996e+00 0.0000000000000000e+00
0.0000000000000000e+00 5.5999999999999996e+00 0.0000000000000000e+00
ITEM: ATOMS x y z
0.68125 0.68125 0.68125
3.40625 3.40625 0.68125
3.40625 0.68125 3.40625
0.68125 3.40625 3.40625
4.76875 2.04375 2.04375
2.04375 4.76875 2.04375
2.04375 2.04375 4.76875
4.76875 4.76875 4.76875
ITEM: TIMESTEP
330
ITEM: NUMBER OF ATOMS
8
ITEM: BOX BOUNDS xy xz yz pp pp pp
0.0000000000000000e+00 5.5999999999999996e+00 0.0000000000000000e+00
0.0000000000000000e+00 5.5999999999999996e+00 0.0000000000000000e+00
0.0000000000000000e+00 5.5999999999999996e+00 0.0000000000000000e+00
ITEM: ATOMS x y z
0.68125 0.68125 0.68125
3.40625 3.40625 0.68125
3.40625 0.68125 3.40625
0.68125 3.40625 3.40625
4.76875 2.04375 2.04375
2.04375 4.76875 2.04375
2.04375 2.04375 4.76875
4.76875 4.76875 4.76875
ITEM: TIMESTEP
340
ITEM: NUMBER OF ATOMS
8
ITEM: BOX BOUNDS xy xz yz pp pp pp
0.0000000000000000e+00 5.5999999999999996e+00 0.0000000000000000e+00
0.0000000000000000e+00 5.5999999999999996e+00 0.0000000000000000e+00
0.0000000000000000e+00 5.5999999999999996e+00 0.0000000000000000e+00
ITEM: ATOMS x y z
0.68125 0.68125 0.68125
3.40625 3.40625 0.68125
3.40625 0.68125 3.40625
0.68125 3.40625 3.40625
4.76875 2.04375 2.04375
2.04375 4.76875 2.04375
2.04375 2.04375 4.76875
4.76875 4.76875 4.76875
ITEM: TIMESTEP
350
ITEM: NUMBER OF ATOMS
8
ITEM: BOX BOUNDS xy xz yz pp pp pp
0.0000000000000000e+00 5.5999999999999996e+00 0.0000000000000000e+00
0.0000000000000000e+00 5.5999999999999996e+00 0.0000000000000000e+00
0.0000000000000000e+00 5.5999999999999996e+00 0.0000000000000000e+00
ITEM: ATOMS x y z
0.68125 0.68125 0.68125
3.40625 3.40625 0.68125
3.40625 0.68125 3.40625
0.68125 3.40625 3.40625
4.76875 2.04375 2.04375
2.04375 4.76875 2.04375
2.04375 2.04375 4.76875
4.76875 4.76875 4.76875
ITEM: TIMESTEP
360
ITEM: NUMBER OF ATOMS
8
ITEM: BOX BOUNDS xy xz yz pp pp pp
0.0000000000000000e+00 5.5999999999999996e+00 0.0000000000000000e+00
0.0000000000000000e+00 5.5999999999999996e+00 0.0000000000000000e+00
0.0000000000000000e+00 5.5999999999999996e+00 0.0000000000000000e+00
ITEM: ATOMS x y z
0.68125 0.68125 0.68125
3.40625 3.40625 0.68125
3.40625 0.68125 3.40625
0.68125 3.40625 3.40625
4.76875 2.04375 2.04375
2.04375 4.76875 2.04375
2.04375 2.04375 4.76875
4.76875 4.76875 4.76875
ITEM: TIMESTEP
370
ITEM: NUMBER OF ATOMS
8
ITEM: BOX BOUNDS xy xz yz pp pp pp
0.0000000000000000e+00 5.5999999999999996e+00 0.0000000000000000e+00
0.0000000000000000e+00 5.5999999999999996e+00 0.0000000000000000e+00
0.0000000000000000e+00 5.5999999999999996e+00 0.0000000000000000e+00
ITEM: ATOMS x y z
0.68125 0.68125 0.68125
3.40625 3.40625 0.68125
3.40625 0.68125 3.40625
0.68125 3.40625 3.40625
4.76875 2.04375 2.04375
2.04375 4.76875 2.04375
2.04375 2.04375 4.76875
4.76875 4.76875 4.76875
ITEM: TIMESTEP
380
ITEM: NUMBER OF ATOMS
8
ITEM: BOX BOUNDS xy xz yz pp pp pp
0.0000000000000000e+00 5.5999999999999996e+00 0.0000000000000000e+00
0.0000000000000000e+00 5.5999999999999996e+00 0.0000000000000000e+00
0.0000000000000000e+00 5.5999999999999996e+00 0.0000000000000000e+00
ITEM: ATOMS x y z
0.68125 0.68125 0.68125
3.40625 3.40625 0.68125
3.40625 0.68125 3.40625
0.68125 3.40625 3.40625
4.76875 2.04375 2.04375
2.04375 4.76875 2.04375
2.04375 2.04375 4.76875
4.76875 4.76875 4.76875
ITEM: TIMESTEP
390
ITEM: NUMBER OF ATOMS
8
ITEM: BOX BOUNDS xy xz yz pp pp pp
0.0000000000000000e+00 5.5999999999999996e+00 0.0000000000000000e+00
0.0000000000000000e+00 5.5999999999999996e+00 0.0000000000000000e+00
0.0000000000000000e+00 5.5999999999999996e+00 0.0000000000000000e+00
ITEM: ATOMS x y z
0.68125 0.68125 0.68125
3.40625 3.40625 0.68125
3.40625 0.68125 3.40625
0.68125 3.40625 3.40625
4.76875 2.04375 2.04375
2.04375 4.76875 2.04375
2.04375 2.04375 4.76875
4.76875 4.76875 4.76875
ITEM: TIMESTEP
400
ITEM: NUMBER OF ATOMS
8
ITEM: BOX BOUNDS xy xz yz pp pp pp
0.0000000000000000e+00 5.5999999999999996e+00 0.0000000000000000e+00
0.0000000000000000e+00 5.5999999999999996e+00 0.0000000000000000e+00
0.0000000000000000e+00 5.5999999999999996e+00 0.0000000000000000e+00
ITEM: ATOMS x y z
0.68125 0.68125 0.68125
3.40625 3.40625 0.68125
3.40625 0.68125 3.40625
0.68125 3.40625 3.40625
4.76875 2.04375 2.04375
2.04375 4.76875 2.04375
2.04375 2.04375 4.76875
4.76875 4.76875 4.76875
ITEM: TIMESTEP
410
ITEM: NUMBER OF ATOMS
8
ITEM: BOX BOUNDS xy xz yz pp pp pp
0.0000000000000000e+00 5.5999999999999996e+00 0.0000000000000000e+00
0.0000000000000000e+00 5.5999999999999996e+00 0.0000000000000000e+00
0.0000000000000000e+00 5.5999999999999996e+00 0.0000000000000000e+00
ITEM: ATOMS x y z
0.68125 0.68125 0.68125
3.40625 3.40625 0.68125
3.40625 0.68125 3.40625
0.68125 3.40625 3.40625
4.76875 2.04375 2.04375
2.04375 4.76875 2.04375
2.04375 2.04375 4.76875
4.76875 4.76875 4.76875
ITEM: TIMESTEP
420
ITEM: NUMBER OF ATOMS
8
ITEM: BOX BOUNDS xy xz yz pp pp pp
0.0000000000000000e+00 5.5999999999999996e+00 0.0000000000000000e+00
0.0000000000000000e+00 5.5999999999999996e+00 0.0000000000000000e+00
0.0000000000000000e+00 5.5999999999999996e+00 0.0000000000000000e+00
ITEM: ATOMS x y z
0.68125 0.68125 0.68125
3.40625 3.40625 0.68125
3.40625 0.68125 3.40625
0.68125 3.40625 3.40625
4.76875 2.04375 2.04375
2.04375 4.76875 2.04375
2.04375 2.04375 4.76875
4.76875 4.76875 4.76875
ITEM: TIMESTEP
430
ITEM: NUMBER OF ATOMS
8
ITEM: BOX BOUNDS xy xz yz pp pp pp
0.0000000000000000e+00 5.5999999999999996e+00 0.0000000000000000e+00
0.0000000000000000e+00 5.5999999999999996e+00 0.0000000000000000e+00
0.0000000000000000e+00 5.5999999999999996e+00 0.0000000000000000e+00
ITEM: ATOMS x y z
0.68125 0.68125 0.68125
3.40625 3.40625 0.68125
3.40625 0.68125 3.40625
0.68125 3.40625 3.40625
4.76875 2.04375 2.04375
2.04375 4.76875 2.04375
2.04375 2.04375 4.76875
4.76875 4.76875 4.76875
ITEM: TIMESTEP
440
ITEM: NUMBER OF ATOMS
8
ITEM: BOX BOUNDS xy xz yz pp pp pp
0.0000000000000000e+00 5.5999999999999996e+00 0.0000000000000000e+00
0.0000000000000000e+00 5.5999999999999996e+00 0.0000000000000000e+00
0.0000000000000000e+00 5.5999999999999996e+00 0.0000000000000000e+00
ITEM: ATOMS x y z
0.68125 0.68125 0.68125
3.40625 3.40625 0.68125
3.40625 0.68125 3.40625
0.68125 3.40625 3.40625
4.76875 2.04375 2.04375
2.04375 4.76875 2.04375
2.04375 2.04375 4.76875
4.76875 4.76875 4.76875
ITEM: TIMESTEP
450
ITEM: NUMBER OF ATOMS
8
ITEM: BOX BOUNDS xy xz yz pp pp pp
0.0000000000000000e+00 5.5999999999999996e+00 0.0000000000000000e+00
0.0000000000000000e+00 5.5999999999999996e+00 0.0000000000000000e+00
0.0000000000000000e+00 5.5999999999999996e+00 0.0000000000000000e+00
ITEM: ATOMS x y z
0.68125 0.68125 0.68125
3.40625 3.40625 0.68125
3.40625 0.68125 3.40625
0.68125 3.40625 3.40625
4.76875 2.04375 2.04375
2.04375 4.76875 2.04375
2.04375 2.04375 4.76875
4.76875 4.76875 4.76875
ITEM: TIMESTEP
460
ITEM: NUMBER OF ATOMS
8
ITEM: BOX BOUNDS xy xz yz pp pp pp
0.0000000000000000e+00 5.5999999999999996e+00 0.0000000000000000e+00
0.0000000000000000e+00 5.5999999999999996e+00 0.0000000000000000e+00
0.0000000000000000e+00 5.5999999999999996e+00 0.0000000000000000e+00
ITEM: ATOMS x y z
0.68125 0.68125 0.68125
3.40625 3.40625 0.68125
3.40625 0.68125 3.40625
0.68125 3.40625 3.40625
4.76875 2.04375 2.04375
2.04375 4.76875 2.04375
2.04375 2.04375 4.76875
4.76875 4.76875 4.76875
ITEM: TIMESTEP
470
ITEM: NUMBER OF ATOMS
8
ITEM: BOX BOUNDS xy xz yz pp pp pp
0.0000000000000000e+00 5.5999999999999996e+00 0.0000000000000000e+00
0.0000000000000000e+00 5.5999999999999996e+00 0.0000000000000000e+00
0.0000000000000000e+00 5.5999999999999996e+00 0.0000000000000000e+00
ITEM: ATOMS x y z
0.68125 0.68125 0.68125
3.40625 3.40625 0.68125
3.40625 0.68125 3.40625
0.68125 3.40625 3.40625
4.76875 2.04375 2.04375
2.04375 4.76875 2.04375
2.04375 2.04375 4.76875
4.76875 4.76875 4.76875
ITEM: TIMESTEP
480
ITEM: NUMBER OF ATOMS
8
ITEM: BOX BOUNDS xy xz yz pp pp pp
0.0000000000000000e+00 5.5999999999999996e+00 0.0000000000000000e+00
0.0000000000000000e+00 5.5999999999999996e+00 0.0000000000000000e+00
0.0000000000000000e+00 5.5999999999999996e+00 0.0000000000000000e+00
ITEM: ATOMS x y z
0.68125 0.68125 0.68125
3.40625 3.40625 0.68125
3.40625 0.68125 3.40625
0.68125 3.40625 3.40625
4.76875 2.04375 2.04375
2.04375 4.76875 2.04375
2.04375 2.04375 4.76875
4.76875 4.76875 4.76875
ITEM: TIMESTEP
490
ITEM: NUMBER OF ATOMS
8
ITEM: BOX BOUNDS xy xz yz pp pp pp
0.0000000000000000e+00 5.5999999999999996e+00 0.0000000000000000e+00
0.0000000000000000e+00 5.5999999999999996e+00 0.0000000000000000e+00
0.0000000000000000e+00 5.5999999999999996e+00 0.0000000000000000e+00
ITEM: ATOMS x y z
0.68125 0.68125 0.68125
3.40625 3.40625 0.68125
3.40625 0.68125 3.40625
0.68125 3.40625 3.40625
4.76875 2.04375 2.04375
2.04375 4.76875 2.04375
2.04375 2.04375 4.76875
4.76875 4.76875 4.76875
ITEM: TIMESTEP
500
ITEM: NUMBER OF ATOMS
8
ITEM: BOX BOUNDS xy xz yz pp pp pp
0.0000000000000000e+00 5.5999999999999996e+00 0.0000000000000000e+00
0.0000000000000000e+00 5.5999999999999996e+00 0.0000000000000000e+00
0.0000000000000000e+00 5.5999999999999996e+00 0.0000000000000000e+00
ITEM: ATOMS x y z
0.68125 0.68125 0.68125
3.40625 3.40625 0.68125
3.40625 0.68125 3.40625
0.68125 3.40625 3.40625
4.76875 2.04375 2.04375
2.04375 4.76875 2.04375
2.04375 2.04375 4.76875
4.76875 4.76875 4.76875
ITEM: TIMESTEP
510
ITEM: NUMBER OF ATOMS
8
ITEM: BOX BOUNDS xy xz yz pp pp pp
0.0000000000000000e+00 5.5999999999999996e+00 0.0000000000000000e+00
0.0000000000000000e+00 5.5999999999999996e+00 0.0000000000000000e+00
0.0000000000000000e+00 5.5999999999999996e+00 0.0000000000000000e+00
ITEM: ATOMS x y z
0.68125 0.68125 0.68125
3.40625 3.40625 0.68125
3.40625 0.68125 3.40625
0.68125 3.40625 3.40625
4.76875 2.04375 2.04375
2.04375 4.76875 2.04375
2.04375 2.04375 4.76875
4.76875 4.76875 4.76875
ITEM: TIMESTEP
520
ITEM: NUMBER OF ATOMS
8
ITEM: BOX BOUNDS xy xz yz pp pp pp
0.0000000000000000e+00 5.5999999999999996e+00 0.0000000000000000e+00
0.0000000000000000e+00 5.5999999999999996e+00 0.0000000000000000e+00
0.0000000000000000e+00 5.5999999999999996e+00 0.0000000000000000e+00
ITEM: ATOMS x y z
0.68125 0.68125 0.68125
3.40625 3.40625 0.68125
3.40625 0.68125 3.40625
0.68125 3.40625 3.40625
4.76875 2.04375 2.04375
2.04375 4.76875 2.04375
2.04375 2.04375 4.76875
4.76875 4.76875 4.76875
ITEM: TIMESTEP
530
ITEM: NUMBER OF ATOMS
8
ITEM: BOX BOUNDS xy xz yz pp pp pp
0.0000000000000000e+00 5.5999999999999996e+00 0.0000000000000000e+00
0.0000000000000000e+00 5.5999999999999996e+00 0.0000000000000000e+00
0.0000000000000000e+00 5.5999999999999996e+00 0.0000000000000000e+00
ITEM: ATOMS x y z
0.68125 0.68125 0.68125
3.40625 3.40625 0.68125
3.40625 0.68125 3.40625
0.68125 3.40625 3.40625
4.76875 2.04375 2.04375
2.04375 4.76875 2.04375
2.04375 2.04375 4.76875
4.76875 4.76875 4.76875
ITEM: TIMESTEP
540
ITEM: NUMBER OF ATOMS
8
ITEM: BOX BOUNDS xy xz yz pp pp pp
0.0000000000000000e+00 5.5999999999999996e+00 0.0000000000000000e+00
0.0000000000000000e+00 5.5999999999999996e+00 0.0000000000000000e+00
0.0000000000000000e+00 5.5999999999999996e+00 0.0000000000000000e+00
ITEM: ATOMS x y z
0.68125 0.68125 0.68125
3.40625 3.40625 0.68125
3.40625 0.68125 3.40625
0.68125 3.40625 3.40625
4.76875 2.04375 2.04375
2.04375 4.76875 2.04375
2.04375 2.04375 4.76875
4.76875 4.76875 4.76875
ITEM: TIMESTEP
550
ITEM: NUMBER OF ATOMS
8
ITEM: BOX BOUNDS xy xz yz pp pp pp
0.0000000000000000e+00 5.5999999999999996e+00 0.0000000000000000e+00
0.0000000000000000e+00 5.5999999999999996e+00 0.0000000000000000e+00
0.0000000000000000e+00 5.5999999999999996e+00 0.0000000000000000e+00
ITEM: ATOMS x y z
0.68125 0.68125 0.68125
3.40625 3.40625 0.68125
3.40625 0.68125 3.40625
0.68125 3.40625 3.40625
4.76875 2.04375 2.04375
2.04375 4.76875 2.04375
2.04375 2.04375 4.76875
4.76875 4.76875 4.76875
ITEM: TIMESTEP
560
ITEM: NUMBER OF ATOMS
8
ITEM: BOX BOUNDS xy xz yz pp pp pp
0.0000000000000000e+00 5.5999999999999996e+00 0.0000000000000000e+00
0.0000000000000000e+00 5.5999999999999996e+00 0.0000000000000000e+00
0.0000000000000000e+00 5.5999999999999996e+00 0.0000000000000000e+00
ITEM: ATOMS x y z
0.68125 0.68125 0.68125
3.40625 3.40625 0.68125
3.40625 0.68125 3.40625
0.68125 3.40625 3.40625
4.76875 2.04375 2.04375
2.04375 4.76875 2.04375
2.04375 2.04375 4.76875
4.76875 4.76875 4.76875
ITEM: TIMESTEP
570
ITEM: NUMBER OF ATOMS
8
ITEM: BOX BOUNDS xy xz yz pp pp pp
0.0000000000000000e+00 5.5999999999999996e+00 0.0000000000000000e+00
0.0000000000000000e+00 5.5999999999999996e+00 0.0000000000000000e+00
0.0000000000000000e+00 5.5999999999999996e+00 0.0000000000000000e+00
ITEM: ATOMS x y z
0.68125 0.68125 0.68125
3.40625 3.40625 0.68125
3.40625 0.68125 3.40625
0.68125 3.40625 3.40625
4.76875 2.04375 2.04375
2.04375 4.76875 2.04375
2.04375 2.04375 4.76875
4.76875 4.76875 4.76875
ITEM: TIMESTEP
580
ITEM: NUMBER OF ATOMS
8
ITEM: BOX BOUNDS xy xz yz pp pp pp
0.0000000000000000e+00 5.5999999999999996e+00 0.0000000000000000e+00
0.0000000000000000e+00 5.5999999999999996e+00 0.0000000000000000e+00
0.0000000000000000e+00 5.5999999999999996e+00 0.0000000000000000e+00
ITEM: ATOMS x y z
0.68125 0.68125 0.68125
3.40625 3.40625 0.68125
3.40625 0.68125 3.40625
0.68125 3.40625 3.40625
4.76875 2.04375 2.04375
2.04375 4.76875 2.04375
2.04375 2.04375 4.76875
4.76875 4.76875 4.76875
ITEM: TIMESTEP
590
ITEM: NUMBER OF ATOMS
8
ITEM: BOX BOUNDS xy xz yz pp pp pp
0.0000000000000000e+00 5.5999999999999996e+00 0.0000000000000000e+00
0.0000000000000000e+00 5.5999999999999996e+00 0.0000000000000000e+00
0.0000000000000000e+00 5.5999999999999996e+00 0.0000000000000000e+00
ITEM: ATOMS x y z
0.68125 0.68125 0.68125
3.40625 3.40625 0.68125
3.40625 0.68125 3.40625
0.68125 3.40625 3.40625
4.76875 2.04375 2.04375
2.04375 4.76875 2.04375
2.04375 2.04375 4.76875
4.76875 4.76875 4.76875
ITEM: TIMESTEP
600
ITEM: NUMBER OF ATOMS
8
ITEM: BOX BOUNDS xy xz yz pp pp pp
0.0000000000000000e+00 5.5999999999999996e+00 0.0000000000000000e+00
0.0000000000000000e+00 5.5999999999999996e+00 0.0000000000000000e+00
0.0000000000000000e+00 5.5999999999999996e+00 0.0000000000000000e+00
ITEM: ATOMS x y z
0.68125 0.68125 0.68125
3.40625 3.40625 0.68125
3.40625 0.68125 3.40625
0.68125 3.40625 3.40625
4.76875 2.04375 2.04375
2.04375 4.76875 2.04375
2.04375 2.04375 4.76875
4.76875 4.76875 4.76875
ITEM: TIMESTEP
610
ITEM: NUMBER OF ATOMS
8
ITEM: BOX BOUNDS xy xz yz pp pp pp
0.0000000000000000e+00 5.5999999999999996e+00 0.0000000000000000e+00
0.0000000000000000e+00 5.5999999999999996e+00 0.0000000000000000e+00
0.0000000000000000e+00 5.5999999999999996e+00 0.0000000000000000e+00
ITEM: ATOMS x y z
0.68125 0.68125 0.68125
3.40625 3.40625 0.68125
3.40625 0.68125 3.40625
0.68125 3.40625 3.40625
4.76875 2.04375 2.04375
2.04375 4.76875 2.04375
2.04375 2.04375 4.76875
4.76875 4.76875 4.76875
ITEM: TIMESTEP
620
ITEM: NUMBER OF ATOMS
8
ITEM: BOX BOUNDS xy xz yz pp pp pp
0.0000000000000000e+00 5.5999999999999996e+00 0.0000000000000000e+00
0.0000000000000000e+00 5.5999999999999996e+00 0.0000000000000000e+00
0.0000000000000000e+00 5.5999999999999996e+00 0.0000000000000000e+00
ITEM: ATOMS x y z
0.68125 0.68125 0.68125
3.40625 3.40625 0.68125
3.40625 0.68125 3.40625
0.68125 3.40625 3.40625
4.76875 2.04375 2.04375
2.04375 4.76875 2.04375
2.04375 2.04375 4.76875
4.76875 4.76875 4.76875
ITEM: TIMESTEP
630
ITEM: NUMBER OF ATOMS
8
ITEM: BOX BOUNDS xy xz yz pp pp pp
0.0000000000000000e+00 5.5999999999999996e+00 0.0000000000000000e+00
0.0000000000000000e+00 5.5999999999999996e+00 0.0000000000000000e+00
0.0000000000000000e+00 5.5999999999999996e+00 0.0000000000000000e+00
ITEM: ATOMS x y z
0.68125 0.68125 0.68125
3.40625 3.40625 0.68125
3.40625 0.68125 3.40625
0.68125 3.40625 3.40625
4.76875 2.04375 2.04375
2.04375 4.76875 2.04375
2.04375 2.04375 4.76875
4.76875 4.76875 4.76875
ITEM: TIMESTEP
640
ITEM: NUMBER OF ATOMS
8
ITEM: BOX BOUNDS xy xz yz pp pp pp
0.0000000000000000e+00 5.5999999999999996e+00 0.0000000000000000e+00
0.0000000000000000e+00 5.5999999999999996e+00 0.0000000000000000e+00
0.0000000000000000e+00 5.5999999999999996e+00 0.0000000000000000e+00
ITEM: ATOMS x y z
0.68125 0.68125 0.68125
3.40625 3.40625 0.68125
3.40625 0.68125 3.40625
0.68125 3.40625 3.40625
4.76875 2.04375 2.04375
2.04375 4.76875 2.04375
2.04375 2.04375 4.76875
4.76875 4.76875 4.76875
ITEM: TIMESTEP
650
ITEM: NUMBER OF ATOMS
8
ITEM: BOX BOUNDS xy xz yz pp pp pp
0.0000000000000000e+00 5.5999999999999996e+00 0.0000000000000000e+00
0.0000000000000000e+00 5.5999999999999996e+00 0.0000000000000000e+00
0.0000000000000000e+00 5.5999999999999996e+00 0.0000000000000000e+00
ITEM: ATOMS x y z
0.68125 0.68125 0.68125
3.40625 3.40625 0.68125
3.40625 0.68125 3.40625
0.68125 3.40625 3.40625
4.76875 2.04375 2.04375
2.04375 4.76875 2.04375
2.04375 2.04375 4.76875
4.76875 4.76875 4.76875
ITEM: TIMESTEP
660
ITEM: NUMBER OF ATOMS
8
ITEM: BOX BOUNDS xy xz yz pp pp pp
0.0000000000000000e+00 5.5999999999999996e+00 0.0000000000000000e+00
0.0000000000000000e+00 5.5999999999999996e+00 0.0000000000000000e+00
0.0000000000000000e+00 5.5999999999999996e+00 0.0000000000000000e+00
ITEM: ATOMS x y z
0.68125 0.68125 0.68125
3.40625 3.40625 0.68125
3.40625 0.68125 3.40625
0.68125 3.40625 3.40625
4.76875 2.04375 2.04375
2.04375 4.76875 2.04375
2.04375 2.04375 4.76875
4.76875 4.76875 4.76875
ITEM: TIMESTEP
670
ITEM: NUMBER OF ATOMS
8
ITEM: BOX BOUNDS xy xz yz pp pp pp
0.0000000000000000e+00 5.5999999999999996e+00 0.0000000000000000e+00
0.0000000000000000e+00 5.5999999999999996e+00 0.0000000000000000e+00
0.0000000000000000e+00 5.5999999999999996e+00 0.0000000000000000e+00
ITEM: ATOMS x y z
0.68125 0.68125 0.68125
3.40625 3.40625 0.68125
3.40625 0.68125 3.40625
0.68125 3.40625 3.40625
4.76875 2.04375 2.04375
2.04375 4.76875 2.04375
2.04375 2.04375 4.76875
4.76875 4.76875 4.76875
ITEM: TIMESTEP
680
ITEM: NUMBER OF ATOMS
8
ITEM: BOX BOUNDS xy xz yz pp pp pp
0.0000000000000000e+00 5.5999999999999996e+00 0.0000000000000000e+00
0.0000000000000000e+00 5.5999999999999996e+00 0.0000000000000000e+00
0.0000000000000000e+00 5.5999999999999996e+00 0.0000000000000000e+00
ITEM: ATOMS x y z
0.68125 0.68125 0.68125
3.40625 3.40625 0.68125
3.40625 0.68125 3.40625
0.68125 3.40625 3.40625
4.76875 2.04375 2.04375
2.04375 4.76875 2.04375
2.04375 2.04375 4.76875
4.76875 4.76875 4.76875
ITEM: TIMESTEP
690
ITEM: NUMBER OF ATOMS
8
ITEM: BOX BOUNDS xy xz yz pp pp pp
0.0000000000000000e+00 5.5999999999999996e+00 0.0000000000000000e+00
0.0000000000000000e+00 5.5999999999999996e+00 0.0000000000000000e+00
0.0000000000000000e+00 5.5999999999999996e+00 0.0000000000000000e+00
ITEM: ATOMS x y z
0.68125 0.68125 0.68125
3.40625 3.40625 0.68125
3.40625 0.68125 3.40625
0.68125 3.40625 3.40625
4.76875 2.04375 2.04375
2.04375 4.76875 2.04375
2.04375 2.04375 4.76875
4.76875 4.76875 4.76875
ITEM: TIMESTEP
700
ITEM: NUMBER OF ATOMS
8
ITEM: BOX BOUNDS xy xz yz pp pp pp
0.0000000000000000e+00 5.5999999999999996e+00 0.0000000000000000e+00
0.0000000000000000e+00 5.5999999999999996e+00 0.0000000000000000e+00
0.0000000000000000e+00 5.5999999999999996e+00 0.0000000000000000e+00
ITEM: ATOMS x y z
0.68125 0.68125 0.68125
3.40625 3.40625 0.68125
3.40625 0.68125 3.40625
0.68125 3.40625 3.40625
4.76875 2.04375 2.04375
2.04375 4.76875 2.04375
2.04375 2.04375 4.76875
4.76875 4.76875 4.76875
ITEM: TIMESTEP
710
ITEM: NUMBER OF ATOMS
8
ITEM: BOX BOUNDS xy xz yz pp pp pp
0.0000000000000000e+00 5.5999999999999996e+00 0.0000000000000000e+00
0.0000000000000000e+00 5.5999999999999996e+00 0.0000000000000000e+00
0.0000000000000000e+00 5.5999999999999996e+00 0.0000000000000000e+00
ITEM: ATOMS x y z
0.68125 0.68125 0.68125
3.40625 3.40625 0.68125
3.40625 0.68125 3.40625
0.68125 3.40625 3.40625
4.76875 2.04375 2.04375
2.04375 4.76875 2.04375
2.04375 2.04375 4.76875
4.76875 4.76875 4.76875
ITEM: TIMESTEP
720
ITEM: NUMBER OF ATOMS
8
ITEM: BOX BOUNDS xy xz yz pp pp pp
0.0000000000000000e+00 5.5999999999999996e+00 0.0000000000000000e+00
0.0000000000000000e+00 5.5999999999999996e+00 0.0000000000000000e+00
0.0000000000000000e+00 5.5999999999999996e+00 0.0000000000000000e+00
ITEM: ATOMS x y z
0.68125 0.68125 0.68125
3.40625 3.40625 0.68125
3.40625 0.68125 3.40625
0.68125 3.40625 3.40625
4.76875 2.04375 2.04375
2.04375 4.76875 2.04375
2.04375 2.04375 4.76875
4.76875 4.76875 4.76875
ITEM: TIMESTEP
730
ITEM: NUMBER OF ATOMS
8
ITEM: BOX BOUNDS xy xz yz pp pp pp
0.0000000000000000e+00 5.5999999999999996e+00 0.0000000000000000e+00
0.0000000000000000e+00 5.5999999999999996e+00 0.0000000000000000e+00
0.0000000000000000e+00 5.5999999999999996e+00 0.0000000000000000e+00
ITEM: ATOMS x y z
0.68125 0.68125 0.68125
3.40625 3.40625 0.68125
3.40625 0.68125 3.40625
0.68125 3.40625 3.40625
4.76875 2.04375 2.04375
2.04375 4.76875 2.04375
2.04375 2.04375 4.76875
4.76875 4.76875 4.76875
ITEM: TIMESTEP
740
ITEM: NUMBER OF ATOMS
8
ITEM: BOX BOUNDS xy xz yz pp pp pp
0.0000000000000000e+00 5.5999999999999996e+00 0.0000000000000000e+00
0.0000000000000000e+00 5.5999999999999996e+00 0.0000000000000000e+00
0.0000000000000000e+00 5.5999999999999996e+00 0.0000000000000000e+00
ITEM: ATOMS x y z
0.68125 0.68125 0.68125
3.40625 3.40625 0.68125
3.40625 0.68125 3.40625
0.68125 3.40625 3.40625
4.76875 2.04375 2.04375
2.04375 4.76875 2.04375
2.04375 2.04375 4.76875
4.76875 4.76875 4.76875
ITEM: TIMESTEP
750
ITEM: NUMBER OF ATOMS
8
ITEM: BOX BOUNDS xy xz yz pp pp pp
0.0000000000000000e+00 5.5999999999999996e+00 0.0000000000000000e+00
0.0000000000000000e+00 5.5999999999999996e+00 0.0000000000000000e+00
0.0000000000000000e+00 5.5999999999999996e+00 0.0000000000000000e+00
ITEM: ATOMS x y z
0.68125 0.68125 0.68125
3.40625 3.40625 0.68125
3.40625 0.68125 3.40625
0.68125 3.40625 3.40625
4.76875 2.04375 2.04375
2.04375 4.76875 2.04375
2.04375 2.04375 4.76875
4.76875 4.76875 4.76875
ITEM: TIMESTEP
760
ITEM: NUMBER OF ATOMS
8
ITEM: BOX BOUNDS xy xz yz pp pp pp
0.0000000000000000e+00 5.5999999999999996e+00 0.0000000000000000e+00
0.0000000000000000e+00 5.5999999999999996e+00 0.0000000000000000e+00
0.0000000000000000e+00 5.5999999999999996e+00 0.0000000000000000e+00
ITEM: ATOMS x y z
0.68125 0.68125 0.68125
3.40625 3.40625 0.68125
3.40625 0.68125 3.40625
0.68125 3.40625 3.40625
4.76875 2.04375 2.04375
2.04375 4.76875 2.04375
2.04375 2.04375 4.76875
4.76875 4.76875 4.76875
ITEM: TIMESTEP
770
ITEM: NUMBER OF ATOMS
8
ITEM: BOX BOUNDS xy xz yz pp pp pp
0.0000000000000000e+00 5.5999999999999996e+00 0.0000000000000000e+00
0.0000000000000000e+00 5.5999999999999996e+00 0.0000000000000000e+00
0.0000000000000000e+00 5.5999999999999996e+00 0.0000000000000000e+00
ITEM: ATOMS x y z
0.68125 0.68125 0.68125
3.40625 3.40625 0.68125
3.40625 0.68125 3.40625
0.68125 3.40625 3.40625
4.76875 2.04375 2.04375
2.04375 4.76875 2.04375
2.04375 2.04375 4.76875
4.76875 4.76875 4.76875
ITEM: TIMESTEP
780
ITEM: NUMBER OF ATOMS
8
ITEM: BOX BOUNDS xy xz yz pp pp pp
0.0000000000000000e+00 5.5999999999999996e+00 0.0000000000000000e+00
0.0000000000000000e+00 5.5999999999999996e+00 0.0000000000000000e+00
0.0000000000000000e+00 5.5999999999999996e+00 0.0000000000000000e+00
ITEM: ATOMS x y z
0.68125 0.68125 0.68125
3.40625 3.40625 0.68125
3.40625 0.68125 3.40625
0.68125 3.40625 3.40625
4.76875 2.04375 2.04375
2.04375 4.76875 2.04375
2.04375 2.04375 4.76875
4.76875 4.76875 4.76875
ITEM: TIMESTEP
790
ITEM: NUMBER OF ATOMS
8
ITEM: BOX BOUNDS xy xz yz pp pp pp
0.0000000000000000e+00 5.5999999999999996e+00 0.0000000000000000e+00
0.0000000000000000e+00 5.5999999999999996e+00 0.0000000000000000e+00
0.0000000000000000e+00 5.5999999999999996e+00 0.0000000000000000e+00
ITEM: ATOMS x y z
0.68125 0.68125 0.68125
3.40625 3.40625 0.68125
3.40625 0.68125 3.40625
0.68125 3.40625 3.40625
4.76875 2.04375 2.04375
2.04375 4.76875 2.04375
2.04375 2.04375 4.76875
4.76875 4.76875 4.76875
ITEM: TIMESTEP
800
ITEM: NUMBER OF ATOMS
8
ITEM: BOX BOUNDS xy xz yz pp pp pp
0.0000000000000000e+00 5.5999999999999996e+00 0.0000000000000000e+00
0.0000000000000000e+00 5.5999999999999996e+00 0.0000000000000000e+00
0.0000000000000000e+00 5.5999999999999996e+00 0.0000000000000000e+00
ITEM: ATOMS x y z
0.68125 0.68125 0.68125
3.40625 3.40625 0.68125
3.40625 0.68125 3.40625
0.68125 3.40625 3.40625
4.76875 2.04375 2.04375
2.04375 4.76875 2.04375
2.04375 2.04375 4.76875
4.76875 4.76875 4.76875
ITEM: TIMESTEP
810
ITEM: NUMBER OF ATOMS
8
ITEM: BOX BOUNDS xy xz yz pp pp pp
0.0000000000000000e+00 5.5999999999999996e+00 0.0000000000000000e+00
0.0000000000000000e+00 5.5999999999999996e+00 0.0000000000000000e+00
0.0000000000000000e+00 5.5999999999999996e+00 0.0000000000000000e+00
ITEM: ATOMS x y z
0.68125 0.68125 0.68125
3.40625 3.40625 0.68125
3.40625 0.68125 3.40625
0.68125 3.40625 3.40625
4.76875 2.04375 2.04375
2.04375 4.76875 2.04375
2.04375 2.04375 4.76875
4.76875 4.76875 4.76875
ITEM: TIMESTEP
820
ITEM: NUMBER OF ATOMS
8
ITEM: BOX BOUNDS xy xz yz pp pp pp
0.0000000000000000e+00 5.5999999999999996e+00 0.0000000000000000e+00
0.0000000000000000e+00 5.5999999999999996e+00 0.0000000000000000e+00
0.0000000000000000e+00 5.5999999999999996e+00 0.0000000000000000e+00
ITEM: ATOMS x y z
0.68125 0.68125 0.68125
3.40625 3.40625 0.68125
3.40625 0.68125 3.40625
0.68125 3.40625 3.40625
4.76875 2.04375 2.04375
2.04375 4.76875 2.04375
2.04375 2.04375 4.76875
4.76875 4.76875 4.76875
ITEM: TIMESTEP
830
ITEM: NUMBER OF ATOMS
8
ITEM: BOX BOUNDS xy xz yz pp pp pp
0.0000000000000000e+00 5.5999999999999996e+00 0.0000000000000000e+00
0.0000000000000000e+00 5.5999999999999996e+00 0.0000000000000000e+00
0.0000000000000000e+00 5.5999999999999996e+00 0.0000000000000000e+00
ITEM: ATOMS x y z
0.68125 0.68125 0.68125
3.40625 3.40625 0.68125
3.40625 0.68125 3.40625
0.68125 3.40625 3.40625
4.76875 2.04375 2.04375
2.04375 4.76875 2.04375
2.04375 2.04375 4.76875
4.76875 4.76875 4.76875
ITEM: TIMESTEP
840
ITEM: NUMBER OF ATOMS
8
ITEM: BOX BOUNDS xy xz yz pp pp pp
0.0000000000000000e+00 5.5999999999999996e+00 0.0000000000000000e+00
0.0000000000000000e+00 5.5999999999999996e+00 0.0000000000000000e+00
0.0000000000000000e+00 5.5999999999999996e+00 0.0000000000000000e+00
ITEM: ATOMS x y z
0.68125 0.68125 0.68125
3.40625 3.40625 0.68125
3.40625 0.68125 3.40625
0.68125 3.40625 3.40625
4.76875 2.04375 2.04375
2.04375 4.76875 2.04375
2.04375 2.04375 4.76875
4.76875 4.76875 4.76875
ITEM: TIMESTEP
850
ITEM: NUMBER OF ATOMS
8
ITEM: BOX BOUNDS xy xz yz pp pp pp
0.0000000000000000e+00 5.5999999999999996e+00 0.0000000000000000e+00
0.0000000000000000e+00 5.5999999999999996e+00 0.0000000000000000e+00
0.0000000000000000e+00 5.5999999999999996e+00 0.0000000000000000e+00
ITEM: ATOMS x y z
0.68125 0.68125 0.68125
3.40625 3.40625 0.68125
3.40625 0.68125 3.40625
0.68125 3.40625 3.40625
4.76875 2.04375 2.04375
2.04375 4.76875 2.04375
2.04375 2.04375 4.76875
4.76875 4.76875 4.76875
ITEM: TIMESTEP
860
ITEM: NUMBER OF ATOMS
8
ITEM: BOX BOUNDS xy xz yz pp pp pp
0.0000000000000000e+00 5.5999999999999996e+00 0.0000000000000000e+00
0.0000000000000000e+00 5.5999999999999996e+00 0.0000000000000000e+00
0.0000000000000000e+00 5.5999999999999996e+00 0.0000000000000000e+00
ITEM: ATOMS x y z
0.68125 0.68125 0.68125
3.40625 3.40625 0.68125
3.40625 0.68125 3.40625
0.68125 3.40625 3.40625
4.76875 2.04375 2.04375
2.04375 4.76875 2.04375
2.04375 2.04375 4.76875
4.76875 4.76875 4.76875
ITEM: TIMESTEP
870
ITEM: NUMBER OF ATOMS
8
ITEM: BOX BOUNDS xy xz yz pp pp pp
0.0000000000000000e+00 5.5999999999999996e+00 0.0000000000000000e+00
0.0000000000000000e+00 5.5999999999999996e+00 0.0000000000000000e+00
0.0000000000000000e+00 5.5999999999999996e+00 0.0000000000000000e+00
ITEM: ATOMS x y z
0.68125 0.68125 0.68125
3.40625 3.40625 0.68125
3.40625 0.68125 3.40625
0.68125 3.40625 3.40625
4.76875 2.04375 2.04375
2.04375 4.76875 2.04375
2.04375 2.04375 4.76875
4.76875 4.76875 4.76875
ITEM: TIMESTEP
880
ITEM: NUMBER OF ATOMS
8
ITEM: BOX BOUNDS xy xz yz pp pp pp
0.0000000000000000e+00 5.5999999999999996e+00 0.0000000000000000e+00
0.0000000000000000e+00 5.5999999999999996e+00 0.0000000000000000e+00
0.0000000000000000e+00 5.5999999999999996e+00 0.0000000000000000e+00
ITEM: ATOMS x y z
0.68125 0.68125 0.68125
3.40625 3.40625 0.68125
3.40625 0.68125 3.40625
0.68125 3.40625 3.40625
4.76875 2.04375 2.04375
2.04375 4.76875 2.04375
2.04375 2.04375 4.76875
4.76875 4.76875 4.76875
ITEM: TIMESTEP
890
ITEM: NUMBER OF ATOMS
8
ITEM: BOX BOUNDS xy xz yz pp pp pp
0.0000000000000000e+00 5.5999999999999996e+00 0.0000000000000000e+00
0.0000000000000000e+00 5.5999999999999996e+00 0.0000000000000000e+00
0.0000000000000000e+00 5.5999999999999996e+00 0.0000000000000000e+00
ITEM: ATOMS x y z
0.68125 0.68125 0.68125
3.40625 3.40625 0.68125
3.40625 0.68125 3.40625
0.68125 3.40625 3.40625
4.76875 2.04375 2.04375
2.04375 4.76875 2.04375
2.04375 2.04375 4.76875
4.76875 4.76875 4.76875
ITEM: TIMESTEP
900
ITEM: NUMBER OF ATOMS
8
ITEM: BOX BOUNDS xy xz yz pp pp pp
0.0000000000000000e+00 5.5999999999999996e+00 0.0000000000000000e+00
0.0000000000000000e+00 5.5999999999999996e+00 0.0000000000000000e+00
0.0000000000000000e+00 5.5999999999999996e+00 0.0000000000000000e+00
ITEM: ATOMS x y z
0.68125 0.68125 0.68125
3.40625 3.40625 0.68125
3.40625 0.68125 3.40625
0.68125 3.40625 3.40625
4.76875 2.04375 2.04375
2.04375 4.76875 2.04375
2.04375 2.04375 4.76875
4.76875 4.76875 4.76875
ITEM: TIMESTEP
910
ITEM: NUMBER OF ATOMS
8
ITEM: BOX BOUNDS xy xz yz pp pp pp
0.0000000000000000e+00 5.5999999999999996e+00 0.0000000000000000e+00
0.0000000000000000e+00 5.5999999999999996e+00 0.0000000000000000e+00
0.0000000000000000e+00 5.5999999999999996e+00 0.0000000000000000e+00
ITEM: ATOMS x y z
0.68125 0.68125 0.68125
3.40625 3.40625 0.68125
3.40625 0.68125 3.40625
0.68125 3.40625 3.40625
4.76875 2.04375 2.04375
2.04375 4.76875 2.04375
2.04375 2.04375 4.76875
4.76875 4.76875 4.76875
ITEM: TIMESTEP
920
ITEM: NUMBER OF ATOMS
8
ITEM: BOX BOUNDS xy xz yz pp pp pp
0.0000000000000000e+00 5.5999999999999996e+00 0.0000000000000000e+00
0.0000000000000000e+00 5.5999999999999996e+00 0.0000000000000000e+00
0.0000000000000000e+00 5.5999999999999996e+00 0.0000000000000000e+00
ITEM: ATOMS x y z
0.68125 0.68125 0.68125
3.40625 3.40625 0.68125
3.40625 0.68125 3.40625
0.68125 3.40625 3.40625
4.76875 2.04375 2.04375
2.04375 4.76875 2.04375
2.04375 2.04375 4.76875
4.76875 4.76875 4.76875
ITEM: TIMESTEP
930
ITEM: NUMBER OF ATOMS
8
ITEM: BOX BOUNDS xy xz yz pp pp pp
0.0000000000000000e+00 5.5999999999999996e+00 0.0000000000000000e+00
0.0000000000000000e+00 5.5999999999999996e+00 0.0000000000000000e+00
0.0000000000000000e+00 5.5999999999999996e+00 0.0000000000000000e+00
ITEM: ATOMS x y z
0.68125 0.68125 0.68125
3.40625 3.40625 0.68125
3.40625 0.68125 3.40625
0.68125 3.40625 3.40625
4.76875 2.04375 2.04375
2.04375 4.76875 2.04375
2.04375 2.04375 4.76875
4.76875 4.76875 4.76875
ITEM: TIMESTEP
940
ITEM: NUMBER OF ATOMS
8
ITEM: BOX BOUNDS xy xz yz pp pp pp
0.0000000000000000e+00 5.5999999999999996e+00 0.0000000000000000e+00
0.0000000000000000e+00 5.5999999999999996e+00 0.0000000000000000e+00
0.0000000000000000e+00 5.5999999999999996e+00 0.0000000000000000e+00
ITEM: ATOMS x y z
0.68125 0.68125 0.68125
3.40625 3.40625 0.68125
3.40625 0.68125 3.40625
0.68125 3.40625 3.40625
4.76875 2.04375 2.04375
2.04375 4.76875 2.04375
2.04375 2.04375 4.76875
4.76875 4.76875 4.76875
ITEM: TIMESTEP
950
ITEM: NUMBER OF ATOMS
8
ITEM: BOX BOUNDS xy xz yz pp pp pp
0.0000000000000000e+00 5.5999999999999996e+00 0.0000000000000000e+00
0.0000000000000000e+00 5.5999999999999996e+00 0.0000000000000000e+00
0.0000000000000000e+00 5.5999999999999996e+00 0.0000000000000000e+00
ITEM: ATOMS x y z
0.68125 0.68125 0.68125
3.40625 3.40625 0.68125
3.40625 0.68125 3.40625
0.68125 3.40625 3.40625
4.76875 2.04375 2.04375
2.04375 4.76875 2.04375
2.04375 2.04375 4.76875
4.76875 4.76875 4.76875
ITEM: TIMESTEP
960
ITEM: NUMBER OF ATOMS
8
ITEM: BOX BOUNDS xy xz yz pp pp pp
0.0000000000000000e+00 5.5999999999999996e+00 0.0000000000000000e+00
0.0000000000000000e+00 5.5999999999999996e+00 0.0000000000000000e+00
0.0000000000000000e+00 5.5999999999999996e+00 0.0000000000000000e+00
ITEM: ATOMS x y z
0.68125 0.68125 0.68125
3.40625 3.40625 0.68125
3.40625 0.68125 3.40625
0.68125 3.40625 3.40625
4.76875 2.04375 2.04375
2.04375 4.76875 2.04375
2.04375 2.04375 4.76875
4.76875 4.76875 4.76875
ITEM: TIMESTEP
970
ITEM: NUMBER OF ATOMS
8
ITEM: BOX BOUNDS xy xz yz pp pp pp
0.0000000000000000e+00 5.5999999999999996e+00 0.0000000000000000e+00
0.0000000000000000e+00 5.5999999999999996e+00 0.0000000000000000e+00
0.0000000000000000e+00 5.5999999999999996e+00 0.0000000000000000e+00
ITEM: ATOMS x y z
0.68125 0.68125 0.68125
3.40625 3.40625 0.68125
3.40625 0.68125 3.40625
0.68125 3.40625 3.40625
4.76875 2.04375 2.04375
2.04375 4.76875 2.04375
2.04375 2.04375 4.76875
4.76875 4.76875 4.76875
ITEM: TIMESTEP
980
ITEM: NUMBER OF ATOMS
8
ITEM: BOX BOUNDS xy xz yz pp pp pp
0.0000000000000000e+00 5.5999999999999996e+00 0.0000000000000000e+00
0.0000000000000000e+00 5.5999999999999996e+00 0.0000000000000000e+00
0.0000000000000000e+00 5.5999999999999996e+00 0.0000000000000000e+00
ITEM: ATOMS x y z
0.68125 0.68125 0.68125
3.40625 3.40625 0.68125
3.40625 0.68125 3.40625
0.68125 3.40625 3.40625
4.76875 2.04375 2.04375
2.04375 4.76875 2.04375
2.04375 2.04375 4.76875
4.76875 4.76875 4.76875
ITEM: TIMESTEP
990
ITEM: NUMBER OF ATOMS
8
ITEM: BOX BOUNDS xy xz yz pp pp pp
0.0000000000000000e+00 5.5999999999999996e+00 0.0000000000000000e+00
0.0000000000000000e+00 5.5999999999999996e+00 0.0000000000000000e+00
0.0000000000000000e+00 5.5999999999999996e+00 0.0000000000000000e+00
ITEM: ATOMS x y z
0.68125 0.68125 0.68125
3.40625 3.40625 0.68125
3.40625 0.68125 3.40625
0.68125 3.40625 3.40625
4.76875 2.04375 2.04375
2.04375 4.76875 2.04375
2.04375 2.04375 4.76875
4.76875 4.76875 4.76875
ITEM: TIMESTEP
1000
ITEM: NUMBER OF ATOMS
8
ITEM: BOX BOUNDS xy xz yz pp pp pp
0.0000000000000000e+00 5.5999999999999996e+00 0.0000000000000000e+00
0.0000000000000000e+00 5.5999999999999996e+00 0.0000000000000000e+00
0.0000000000000000e+00 5.5999999999999996e+00 0.0000000000000000e+00
ITEM: ATOMS x y z
0.68125 0.68125 0.68125
3.40625 3.40625 0.68125
3.40625 0.68125 3.40625
0.68125 3.40625 3.40625
4.76875 2.04375 2.04375
2.04375 4.76875 2.04375
2.04375 2.04375 4.76875
4.76875 4.76875 4.76875
ITEM: TIMESTEP
1010
ITEM: NUMBER OF ATOMS
8
ITEM: BOX BOUNDS xy xz yz pp pp pp
0.0000000000000000e+00 5.5999999999999996e+00 0.0000000000000000e+00
0.0000000000000000e+00 5.5999999999999996e+00 0.0000000000000000e+00
0.0000000000000000e+00 5.5999999999999996e+00 0.0000000000000000e+00
ITEM: ATOMS x y z
0.68125 0.68125 0.68125
3.40625 3.40625 0.68125
3.40625 0.68125 3.40625
0.68125 3.40625 3.40625
4.76875 2.04375 2.04375
2.04375 4.76875 2.04375
2.04375 2.04375 4.76875
4.76875 4.76875 4.76875
ITEM: TIMESTEP
1020
ITEM: NUMBER OF ATOMS
8
ITEM: BOX BOUNDS xy xz yz pp pp pp
0.0000000000000000e+00 5.5999999999999996e+00 0.0000000000000000e+00
0.0000000000000000e+00 5.5999999999999996e+00 0.0000000000000000e+00
0.0000000000000000e+00 5.5999999999999996e+00 0.0000000000000000e+00
ITEM: ATOMS x y z
0.68125 0.68125 0.68125
3.40625 3.40625 0.68125
3.40625 0.68125 3.40625
0.68125 3.40625 3.40625
4.76875 2.04375 2.04375
2.04375 4.76875 2.04375
2.04375 2.04375 4.76875
4.76875 4.76875 4.76875
ITEM: TIMESTEP
1030
ITEM: NUMBER OF ATOMS
8
ITEM: BOX BOUNDS xy xz yz pp pp pp
0.0000000000000000e+00 5.5999999999999996e+00 0.0000000000000000e+00
0.0000000000000000e+00 5.5999999999999996e+00 0.0000000000000000e+00
0.0000000000000000e+00 5.5999999999999996e+00 0.0000000000000000e+00
ITEM: ATOMS x y z
0.68125 0.68125 0.68125
3.40625 3.40625 0.68125
3.40625 0.68125 3.40625
0.68125 3.40625 3.40625
4.76875 2.04375 2.04375
2.04375 4.76875 2.04375
2.04375 2.04375 4.76875
4.76875 4.76875 4.76875
ITEM: TIMESTEP
1040
ITEM: NUMBER OF ATOMS
8
ITEM: BOX BOUNDS xy xz yz pp pp pp
0.0000000000000000e+00 5.5999999999999996e+00 0.0000000000000000e+00
0.0000000000000000e+00 5.5999999999999996e+00 0.0000000000000000e+00
0.0000000000000000e+00 5.5999999999999996e+00 0.0000000000000000e+00
ITEM: ATOMS x y z
0.68125 0.68125 0.68125
3.40625 3.40625 0.68125
3.40625 0.68125 3.40625
0.68125 3.40625 3.40625
4.76875 2.04375 2.04375
2.04375 4.76875 2.04375
2.04375 2.04375 4.76875
4.76875 4.76875 4.76875
ITEM: TIMESTEP
1050
ITEM: NUMBER OF ATOMS
8
ITEM: BOX BOUNDS xy xz yz pp pp pp
0.0000000000000000e+00 5.5999999999999996e+00 0.0000000000000000e+00
0.0000000000000000e+00 5.5999999999999996e+00 0.0000000000000000e+00
0.0000000000000000e+00 5.5999999999999996e+00 0.0000000000000000e+00
ITEM: ATOMS x y z
0.68125 0.68125 0.68125
3.40625 3.40625 0.68125
3.40625 0.68125 3.40625
0.68125 3.40625 3.40625
4.76875 2.04375 2.04375
2.04375 4.76875 2.04375
2.04375 2.04375 4.76875
4.76875 4.76875 4.76875
ITEM: TIMESTEP
1060
ITEM: NUMBER OF ATOMS
8
ITEM: BOX BOUNDS xy xz yz pp pp pp
0.0000000000000000e+00 5.5999999999999996e+00 0.0000000000000000e+00
0.0000000000000000e+00 5.5999999999999996e+00 0.0000000000000000e+00
0.0000000000000000e+00 5.5999999999999996e+00 0.0000000000000000e+00
ITEM: ATOMS x y z
0.68125 0.68125 0.68125
3.40625 3.40625 0.68125
3.40625 0.68125 3.40625
0.68125 3.40625 3.40625
4.76875 2.04375 2.04375
2.04375 4.76875 2.04375
2.04375 2.04375 4.76875
4.76875 4.76875 4.76875
ITEM: TIMESTEP
1070
ITEM: NUMBER OF ATOMS
8
ITEM: BOX BOUNDS xy xz yz pp pp pp
0.0000000000000000e+00 5.5999999999999996e+00 0.0000000000000000e+00
0.0000000000000000e+00 5.5999999999999996e+00 0.0000000000000000e+00
0.0000000000000000e+00 5.5999999999999996e+00 0.0000000000000000e+00
ITEM: ATOMS x y z
0.68125 0.68125 0.68125
3.40625 3.40625 0.68125
3.40625 0.68125 3.40625
0.68125 3.40625 3.40625
4.76875 2.04375 2.04375
2.04375 4.76875 2.04375
2.04375 2.04375 4.76875
4.76875 4.76875 4.76875
ITEM: TIMESTEP
1080
ITEM: NUMBER OF ATOMS
8
ITEM: BOX BOUNDS xy xz yz pp pp pp
0.0000000000000000e+00 5.5999999999999996e+00 0.0000000000000000e+00
0.0000000000000000e+00 5.5999999999999996e+00 0.0000000000000000e+00
0.0000000000000000e+00 5.5999999999999996e+00 0.0000000000000000e+00
ITEM: ATOMS x y z
0.68125 0.68125 0.68125
3.40625 3.40625 0.68125
3.40625 0.68125 3.40625
0.68125 3.40625 3.40625
4.76875 2.04375 2.04375
2.04375 4.76875 2.04375
2.04375 2.04375 4.76875
4.76875 4.76875 4.76875
ITEM: TIMESTEP
1090
ITEM: NUMBER OF ATOMS
8
ITEM: BOX BOUNDS xy xz yz pp pp pp
0.0000000000000000e+00 5.5999999999999996e+00 0.0000000000000000e+00
0.0000000000000000e+00 5.5999999999999996e+00 0.0000000000000000e+00
0.0000000000000000e+00 5.5999999999999996e+00 0.0000000000000000e+00
ITEM: ATOMS x y z
0.68125 0.68125 0.68125
3.40625 3.40625 0.68125
3.40625 0.68125 3.40625
0.68125 3.40625 3.40625
4.76875 2.04375 2.04375
2.04375 4.76875 2.04375
2.04375 2.04375 4.76875
4.76875 4.76875 4.76875
ITEM: TIMESTEP
1100
ITEM: NUMBER OF ATOMS
8
ITEM: BOX BOUNDS xy xz yz pp pp pp
0.0000000000000000e+00 5.5999999999999996e+00 0.0000000000000000e+00
0.0000000000000000e+00 5.5999999999999996e+00 0.0000000000000000e+00
0.0000000000000000e+00 5.5999999999999996e+00 0.0000000000000000e+00
ITEM: ATOMS x y z
0.68125 0.68125 0.68125
3.40625 3.40625 0.68125
3.40625 0.68125 3.40625
0.68125 3.40625 3.40625
4.76875 2.04375 2.04375
2.04375 4.76875 2.04375
2.04375 2.04375 4.76875
4.76875 4.76875 4.76875
ITEM: TIMESTEP
1110
ITEM: NUMBER OF ATOMS
8
ITEM: BOX BOUNDS xy xz yz pp pp pp
0.0000000000000000e+00 5.5999999999999996e+00 0.0000000000000000e+00
0.0000000000000000e+00 5.5999999999999996e+00 0.0000000000000000e+00
0.0000000000000000e+00 5.5999999999999996e+00 0.0000000000000000e+00
ITEM: ATOMS x y z
0.68125 0.68125 0.68125
3.40625 3.40625 0.68125
3.40625 0.68125 3.40625
0.68125 3.40625 3.40625
4.76875 2.04375 2.04375
2.04375 4.76875 2.04375
2.04375 2.04375 4.76875
4.76875 4.76875 4.76875
ITEM: TIMESTEP
1120
ITEM: NUMBER OF ATOMS
8
ITEM: BOX BOUNDS xy xz yz pp pp pp
0.0000000000000000e+00 5.5999999999999996e+00 0.0000000000000000e+00
0.0000000000000000e+00 5.5999999999999996e+00 0.0000000000000000e+00
0.0000000000000000e+00 5.5999999999999996e+00 0.0000000000000000e+00
ITEM: ATOMS x y z
0.68125 0.68125 0.68125
3.40625 3.40625 0.68125
3.40625 0.68125 3.40625
0.68125 3.40625 3.40625
4.76875 2.04375 2.04375
2.04375 4.76875 2.04375
2.04375 2.04375 4.76875
4.76875 4.76875 4.76875
ITEM: TIMESTEP
1130
ITEM: NUMBER OF ATOMS
8
ITEM: BOX BOUNDS xy xz yz pp pp pp
0.0000000000000000e+00 5.5999999999999996e+00 0.0000000000000000e+00
0.0000000000000000e+00 5.5999999999999996e+00 0.0000000000000000e+00
0.0000000000000000e+00 5.5999999999999996e+00 0.0000000000000000e+00
ITEM: ATOMS x y z
0.68125 0.68125 0.68125
3.40625 3.40625 0.68125
3.40625 0.68125 3.40625
0.68125 3.40625 3.40625
4.76875 2.04375 2.04375
2.04375 4.76875 2.04375
2.04375 2.04375 4.76875
4.76875 4.76875 4.76875
ITEM: TIMESTEP
1140
ITEM: NUMBER OF ATOMS
8
ITEM: BOX BOUNDS xy xz yz pp pp pp
0.0000000000000000e+00 5.5999999999999996e+00 0.0000000000000000e+00
0.0000000000000000e+00 5.5999999999999996e+00 0.0000000000000000e+00
0.0000000000000000e+00 5.5999999999999996e+00 0.0000000000000000e+00
ITEM: ATOMS x y z
0.68125 0.68125 0.68125
3.40625 3.40625 0.68125
3.40625 0.68125 3.40625
0.68125 3.40625 3.40625
4.76875 2.04375 2.04375
2.04375 4.76875 2.04375
2.04375 2.04375 4.76875
4.76875 4.76875 4.76875
ITEM: TIMESTEP
1150
ITEM: NUMBER OF ATOMS
8
ITEM: BOX BOUNDS xy xz yz pp pp pp
0.0000000000000000e+00 5.5999999999999996e+00 0.0000000000000000e+00
0.0000000000000000e+00 5.5999999999999996e+00 0.0000000000000000e+00
0.0000000000000000e+00 5.5999999999999996e+00 0.0000000000000000e+00
ITEM: ATOMS x y z
0.68125 0.68125 0.68125
3.40625 3.40625 0.68125
3.40625 0.68125 3.40625
0.68125 3.40625 3.40625
4.76875 2.04375 2.04375
2.04375 4.76875 2.04375
2.04375 2.04375 4.76875
4.76875 4.76875 4.76875
ITEM: TIMESTEP
1160
ITEM: NUMBER OF ATOMS
8
ITEM: BOX BOUNDS xy xz yz pp pp pp
0.0000000000000000e+00 5.5999999999999996e+00 0.0000000000000000e+00
0.0000000000000000e+00 5.5999999999999996e+00 0.0000000000000000e+00
0.0000000000000000e+00 5.5999999999999996e+00 0.0000000000000000e+00
ITEM: ATOMS x y z
0.68125 0.68125 0.68125
3.40625 3.40625 0.68125
3.40625 0.68125 3.40625
0.68125 3.40625 3.40625
4.76875 2.04375 2.04375
2.04375 4.76875 2.04375
2.04375 2.04375 4.76875
4.76875 4.76875 4.76875
ITEM: TIMESTEP
1170
ITEM: NUMBER OF ATOMS
8
ITEM: BOX BOUNDS xy xz yz pp pp pp
0.0000000000000000e+00 5.5999999999999996e+00 0.0000000000000000e+00
0.0000000000000000e+00 5.5999999999999996e+00 0.0000000000000000e+00
0.0000000000000000e+00 5.5999999999999996e+00 0.0000000000000000e+00
ITEM: ATOMS x y z
0.68125 0.68125 0.68125
3.40625 3.40625 0.68125
3.40625 0.68125 3.40625
0.68125 3.40625 3.40625
4.76875 2.04375 2.04375
2.04375 4.76875 2.04375
2.04375 2.04375 4.76875
4.76875 4.76875 4.76875
ITEM: TIMESTEP
1180
ITEM: NUMBER OF ATOMS
8
ITEM: BOX BOUNDS xy xz yz pp pp pp
0.0000000000000000e+00 5.5999999999999996e+00 0.0000000000000000e+00
0.0000000000000000e+00 5.5999999999999996e+00 0.0000000000000000e+00
0.0000000000000000e+00 5.5999999999999996e+00 0.0000000000000000e+00
ITEM: ATOMS x y z
0.68125 0.68125 0.68125
3.40625 3.40625 0.68125
3.40625 0.68125 3.40625
0.68125 3.40625 3.40625
4.76875 2.04375 2.04375
2.04375 4.76875 2.04375
2.04375 2.04375 4.76875
4.76875 4.76875 4.76875
ITEM: TIMESTEP
1190
ITEM: NUMBER OF ATOMS
8
ITEM: BOX BOUNDS xy xz yz pp pp pp
0.0000000000000000e+00 5.5999999999999996e+00 0.0000000000000000e+00
0.0000000000000000e+00 5.5999999999999996e+00 0.0000000000000000e+00
0.0000000000000000e+00 5.5999999999999996e+00 0.0000000000000000e+00
ITEM: ATOMS x y z
0.68125 0.68125 0.68125
3.40625 3.40625 0.68125
3.40625 0.68125 3.40625
0.68125 3.40625 3.40625
4.76875 2.04375 2.04375
2.04375 4.76875 2.04375
2.04375 2.04375 4.76875
4.76875 4.76875 4.76875
ITEM: TIMESTEP
1200
ITEM: NUMBER OF ATOMS
8
ITEM: BOX BOUNDS xy xz yz pp pp pp
0.0000000000000000e+00 5.5999999999999996e+00 0.0000000000000000e+00
0.0000000000000000e+00 5.5999999999999996e+00 0.0000000000000000e+00
0.0000000000000000e+00 5.5999999999999996e+00 0.0000000000000000e+00
ITEM: ATOMS x y z
0.68125 0.68125 0.68125
3.40625 3.40625 0.68125
3.40625 0.68125 3.40625
0.68125 3.40625 3.40625
4.76875 2.04375 2.04375
2.04375 4.76875 2.04375
2.04375 2.04375 4.76875
4.76875 4.76875 4.76875
ITEM: TIMESTEP
1210
ITEM: NUMBER OF ATOMS
8
ITEM: BOX BOUNDS xy xz yz pp pp pp
0.0000000000000000e+00 5.5999999999999996e+00 0.0000000000000000e+00
0.0000000000000000e+00 5.5999999999999996e+00 0.0000000000000000e+00
0.0000000000000000e+00 5.5999999999999996e+00 0.0000000000000000e+00
ITEM: ATOMS x y z
0.68125 0.68125 0.68125
3.40625 3.40625 0.68125
3.40625 0.68125 3.40625
0.68125 3.40625 3.40625
4.76875 2.04375 2.04375
2.04375 4.76875 2.04375
2.04375 2.04375 4.76875
4.76875 4.76875 4.76875
ITEM: TIMESTEP
1220
ITEM: NUMBER OF ATOMS
8
ITEM: BOX BOUNDS xy xz yz pp pp pp
0.0000000000000000e+00 5.5999999999999996e+00 0.0000000000000000e+00
0.0000000000000000e+00 5.5999999999999996e+00 0.0000000000000000e+00
0.0000000000000000e+00 5.5999999999999996e+00 0.0000000000000000e+00
ITEM: ATOMS x y z
0.68125 0.68125 0.68125
3.40625 3.40625 0.68125
3.40625 0.68125 3.40625
0.68125 3.40625 3.40625
4.76875 2.04375 2.04375
2.04375 4.76875 2.04375
2.04375 2.04375 4.76875
4.76875 4.76875 4.76875
ITEM: TIMESTEP
1230
ITEM: NUMBER OF ATOMS
8
ITEM: BOX BOUNDS xy xz yz pp pp pp
0.0000000000000000e+00 5.5999999999999996e+00 0.0000000000000000e+00
0.0000000000000000e+00 5.5999999999999996e+00 0.0000000000000000e+00
0.0000000000000000e+00 5.5999999999999996e+00 0.0000000000000000e+00
ITEM: ATOMS x y z
0.68125 0.68125 0.68125
3.40625 3.40625 0.68125
3.40625 0.68125 3.40625
0.68125 3.40625 3.40625
4.76875 2.04375 2.04375
2.04375 4.76875 2.04375
2.04375 2.04375 4.76875
4.76875 4.76875 4.76875
ITEM: TIMESTEP
1240
ITEM: NUMBER OF ATOMS
8
ITEM: BOX BOUNDS xy xz yz pp pp pp
0.0000000000000000e+00 5.5999999999999996e+00 0.0000000000000000e+00
0.0000000000000000e+00 5.5999999999999996e+00 0.0000000000000000e+00
0.0000000000000000e+00 5.5999999999999996e+00 0.0000000000000000e+00
ITEM: ATOMS x y z
0.68125 0.68125 0.68125
3.40625 3.40625 0.68125
3.40625 0.68125 3.40625
0.68125 3.40625 3.40625
4.76875 2.04375 2.04375
2.04375 4.76875 2.04375
2.04375 2.04375 4.76875
4.76875 4.76875 4.76875
ITEM: TIMESTEP
1250
ITEM: NUMBER OF ATOMS
8
ITEM: BOX BOUNDS xy xz yz pp pp pp
0.0000000000000000e+00 5.5999999999999996e+00 0.0000000000000000e+00
0.0000000000000000e+00 5.5999999999999996e+00 0.0000000000000000e+00
0.0000000000000000e+00 5.5999999999999996e+00 0.0000000000000000e+00
ITEM: ATOMS x y z
0.68125 0.68125 0.68125
3.40625 3.40625 0.68125
3.40625 0.68125 3.40625
0.68125 3.40625 3.40625
4.76875 2.04375 2.04375
2.04375 4.76875 2.04375
2.04375 2.04375 4.76875
4.76875 4.76875 4.76875
ITEM: TIMESTEP
1260
ITEM: NUMBER OF ATOMS
8
ITEM: BOX BOUNDS xy xz yz pp pp pp
0.0000000000000000e+00 5.5999999999999996e+00 0.0000000000000000e+00
0.0000000000000000e+00 5.5999999999999996e+00 0.0000000000000000e+00
0.0000000000000000e+00 5.5999999999999996e+00 0.0000000000000000e+00
ITEM: ATOMS x y z
0.68125 0.68125 0.68125
3.40625 3.40625 0.68125
3.40625 0.68125 3.40625
0.68125 3.40625 3.40625
4.76875 2.04375 2.04375
2.04375 4.76875 2.04375
2.04375 2.04375 4.76875
4.76875 4.76875 4.76875
ITEM: TIMESTEP
1270
ITEM: NUMBER OF ATOMS
8
ITEM: BOX BOUNDS xy xz yz pp pp pp
0.0000000000000000e+00 5.5999999999999996e+00 0.0000000000000000e+00
0.0000000000000000e+00 5.5999999999999996e+00 0.0000000000000000e+00
0.0000000000000000e+00 5.5999999999999996e+00 0.0000000000000000e+00
ITEM: ATOMS x y z
0.68125 0.68125 0.68125
3.40625 3.40625 0.68125
3.40625 0.68125 3.40625
0.68125 3.40625 3.40625
4.76875 2.04375 2.04375
2.04375 4.76875 2.04375
2.04375 2.04375 4.76875
4.76875 4.76875 4.76875
ITEM: TIMESTEP
1280
ITEM: NUMBER OF ATOMS
8
ITEM: BOX BOUNDS xy xz yz pp pp pp
0.0000000000000000e+00 5.5999999999999996e+00 0.0000000000000000e+00
0.0000000000000000e+00 5.5999999999999996e+00 0.0000000000000000e+00
0.0000000000000000e+00 5.5999999999999996e+00 0.0000000000000000e+00
ITEM: ATOMS x y z
0.68125 0.68125 0.68125
3.40625 3.40625 0.68125
3.40625 0.68125 3.40625
0.68125 3.40625 3.40625
4.76875 2.04375 2.04375
2.04375 4.76875 2.04375
2.04375 2.04375 4.76875
4.76875 4.76875 4.76875
ITEM: TIMESTEP
1290
ITEM: NUMBER OF ATOMS
8
ITEM: BOX BOUNDS xy xz yz pp pp pp
0.0000000000000000e+00 5.5999999999999996e+00 0.0000000000000000e+00
0.0000000000000000e+00 5.5999999999999996e+00 0.0000000000000000e+00
0.0000000000000000e+00 5.5999999999999996e+00 0.0000000000000000e+00
ITEM: ATOMS x y z
0.68125 0.68125 0.68125
3.40625 3.40625 0.68125
3.40625 0.68125 3.40625
0.68125 3.40625 3.40625
4.76875 2.04375 2.04375
2.04375 4.76875 2.04375
2.04375 2.04375 4.76875
4.76875 4.76875 4.76875
ITEM: TIMESTEP
1300
ITEM: NUMBER OF ATOMS
8
ITEM: BOX BOUNDS xy xz yz pp pp pp
0.0000000000000000e+00 5.5999999999999996e+00 0.0000000000000000e+00
0.0000000000000000e+00 5.5999999999999996e+00 0.0000000000000000e+00
0.0000000000000000e+00 5.5999999999999996e+00 0.0000000000000000e+00
ITEM: ATOMS x y z
0.68125 0.68125 0.68125
3.40625 3.40625 0.68125
3.40625 0.68125 3.40625
0.68125 3.40625 3.40625
4.76875 2.04375 2.04375
2.04375 4.76875 2.04375
2.04375 2.04375 4.76875
4.76875 4.76875 4.76875
ITEM: TIMESTEP
1310
ITEM: NUMBER OF ATOMS
8
ITEM: BOX BOUNDS xy xz yz pp pp pp
0.0000000000000000e+00 5.5999999999999996e+00 0.0000000000000000e+00
0.0000000000000000e+00 5.5999999999999996e+00 0.0000000000000000e+00
0.0000000000000000e+00 5.5999999999999996e+00 0.0000000000000000e+00
ITEM: ATOMS x y z
0.68125 0.68125 0.68125
3.40625 3.40625 0.68125
3.40625 0.68125 3.40625
0.68125 3.40625 3.40625
4.76875 2.04375 2.04375
2.04375 4.76875 2.04375
2.04375 2.04375 4.76875
4.76875 4.76875 4.76875
ITEM: TIMESTEP
1320
ITEM: NUMBER OF ATOMS
8
ITEM: BOX BOUNDS xy xz yz pp pp pp
0.0000000000000000e+00 5.5999999999999996e+00 0.0000000000000000e+00
0.0000000000000000e+00 5.5999999999999996e+00 0.0000000000000000e+00
0.0000000000000000e+00 5.5999999999999996e+00 0.0000000000000000e+00
ITEM: ATOMS x y z
0.68125 0.68125 0.68125
3.40625 3.40625 0.68125
3.40625 0.68125 3.40625
0.68125 3.40625 3.40625
4.76875 2.04375 2.04375
2.04375 4.76875 2.04375
2.04375 2.04375 4.76875
4.76875 4.76875 4.76875
ITEM: TIMESTEP
1330
ITEM: NUMBER OF ATOMS
8
ITEM: BOX BOUNDS xy xz yz pp pp pp
0.0000000000000000e+00 5.5999999999999996e+00 0.0000000000000000e+00
0.0000000000000000e+00 5.5999999999999996e+00 0.0000000000000000e+00
0.0000000000000000e+00 5.5999999999999996e+00 0.0000000000000000e+00
ITEM: ATOMS x y z
0.68125 0.68125 0.68125
3.40625 3.40625 0.68125
3.40625 0.68125 3.40625
0.68125 3.40625 3.40625
4.76875 2.04375 2.04375
2.04375 4.76875 2.04375
2.04375 2.04375 4.76875
4.76875 4.76875 4.76875
ITEM: TIMESTEP
1340
ITEM: NUMBER OF ATOMS
8
ITEM: BOX BOUNDS xy xz yz pp pp pp
0.0000000000000000e+00 5.5999999999999996e+00 0.0000000000000000e+00
0.0000000000000000e+00 5.5999999999999996e+00 0.0000000000000000e+00
0.0000000000000000e+00 5.5999999999999996e+00 0.0000000000000000e+00
ITEM: ATOMS x y z
0.68125 0.68125 0.68125
3.40625 3.40625 0.68125
3.40625 0.68125 3.40625
0.68125 3.40625 3.40625
4.76875 2.04375 2.04375
2.04375 4.76875 2.04375
2.04375 2.04375 4.76875
4.76875 4.76875 4.76875
ITEM: TIMESTEP
1350
ITEM: NUMBER OF ATOMS
8
ITEM: BOX BOUNDS xy xz yz pp pp pp
0.0000000000000000e+00 5.5999999999999996e+00 0.0000000000000000e+00
0.0000000000000000e+00 5.5999999999999996e+00 0.0000000000000000e+00
0.0000000000000000e+00 5.5999999999999996e+00 0.0000000000000000e+00
ITEM: ATOMS x y z
0.68125 0.68125 0.68125
3.40625 3.40625 0.68125
3.40625 0.68125 3.40625
0.68125 3.40625 3.40625
4.76875 2.04375 2.04375
2.04375 4.76875 2.04375
2.04375 2.04375 4.76875
4.76875 4.76875 4.76875
ITEM: TIMESTEP
1360
ITEM: NUMBER OF ATOMS
8
ITEM: BOX BOUNDS xy xz yz pp pp pp
0.0000000000000000e+00 5.5999999999999996e+00 0.0000000000000000e+00
0.0000000000000000e+00 5.5999999999999996e+00 0.0000000000000000e+00
0.0000000000000000e+00 5.5999999999999996e+00 0.0000000000000000e+00
ITEM: ATOMS x y z
0.68125 0.68125 0.68125
3.40625 3.40625 0.68125
3.40625 0.68125 3.40625
0.68125 3.40625 3.40625
4.76875 2.04375 2.04375
2.04375 4.76875 2.04375
2.04375 2.04375 4.76875
4.76875 4.76875 4.76875
ITEM: TIMESTEP
1370
ITEM: NUMBER OF ATOMS
8
ITEM: BOX BOUNDS xy xz yz pp pp pp
0.0000000000000000e+00 5.5999999999999996e+00 0.0000000000000000e+00
0.0000000000000000e+00 5.5999999999999996e+00 0.0000000000000000e+00
0.0000000000000000e+00 5.5999999999999996e+00 0.0000000000000000e+00
ITEM: ATOMS x y z
0.68125 0.68125 0.68125
3.40625 3.40625 0.68125
3.40625 0.68125 3.40625
0.68125 3.40625 3.40625
4.76875 2.04375 2.04375
2.04375 4.76875 2.04375
2.04375 2.04375 4.76875
4.76875 4.76875 4.76875
ITEM: TIMESTEP
1380
ITEM: NUMBER OF ATOMS
8
ITEM: BOX BOUNDS xy xz yz pp pp pp
0.0000000000000000e+00 5.5999999999999996e+00 0.0000000000000000e+00
0.0000000000000000e+00 5.5999999999999996e+00 0.0000000000000000e+00
0.0000000000000000e+00 5.5999999999999996e+00 0.0000000000000000e+00
ITEM: ATOMS x y z
0.68125 0.68125 0.68125
3.40625 3.40625 0.68125
3.40625 0.68125 3.40625
0.68125 3.40625 3.40625
4.76875 2.04375 2.04375
2.04375 4.76875 2.04375
2.04375 2.04375 4.76875
4.76875 4.76875 4.76875
ITEM: TIMESTEP
1390
ITEM: NUMBER OF ATOMS
8
ITEM: BOX BOUNDS xy xz yz pp pp pp
0.0000000000000000e+00 5.5999999999999996e+00 0.0000000000000000e+00
0.0000000000000000e+00 5.5999999999999996e+00 0.0000000000000000e+00
0.0000000000000000e+00 5.5999999999999996e+00 0.0000000000000000e+00
ITEM: ATOMS x y z
0.68125 0.68125 0.68125
3.40625 3.40625 0.68125
3.40625 0.68125 3.40625
0.68125 3.40625 3.40625
4.76875 2.04375 2.04375
2.04375 4.76875 2.04375
2.04375 2.04375 4.76875
4.76875 4.76875 4.76875
ITEM: TIMESTEP
1400
ITEM: NUMBER OF ATOMS
8
ITEM: BOX BOUNDS xy xz yz pp pp pp
0.0000000000000000e+00 5.5999999999999996e+00 0.0000000000000000e+00
0.0000000000000000e+00 5.5999999999999996e+00 0.0000000000000000e+00
0.0000000000000000e+00 5.5999999999999996e+00 0.0000000000000000e+00
ITEM: ATOMS x y z
0.68125 0.68125 0.68125
3.40625 3.40625 0.68125
3.40625 0.68125 3.40625
0.68125 3.40625 3.40625
4.76875 2.04375 2.04375
2.04375 4.76875 2.04375
2.04375 2.04375 4.76875
4.76875 4.76875 4.76875
ITEM: TIMESTEP
1410
ITEM: NUMBER OF ATOMS
8
ITEM: BOX BOUNDS xy xz yz pp pp pp
0.0000000000000000e+00 5.5999999999999996e+00 0.0000000000000000e+00
0.0000000000000000e+00 5.5999999999999996e+00 0.0000000000000000e+00
0.0000000000000000e+00 5.5999999999999996e+00 0.0000000000000000e+00
ITEM: ATOMS x y z
0.68125 0.68125 0.68125
3.40625 3.40625 0.68125
3.40625 0.68125 3.40625
0.68125 3.40625 3.40625
4.76875 2.04375 2.04375
2.04375 4.76875 2.04375
2.04375 2.04375 4.76875
4.76875 4.76875 4.76875
ITEM: TIMESTEP
1420
ITEM: NUMBER OF ATOMS
8
ITEM: BOX BOUNDS xy xz yz pp pp pp
0.0000000000000000e+00 5.5999999999999996e+00 0.0000000000000000e+00
0.0000000000000000e+00 5.5999999999999996e+00 0.0000000000000000e+00
0.0000000000000000e+00 5.5999999999999996e+00 0.0000000000000000e+00
ITEM: ATOMS x y z
0.68125 0.68125 0.68125
3.40625 3.40625 0.68125
3.40625 0.68125 3.40625
0.68125 3.40625 3.40625
4.76875 2.04375 2.04375
2.04375 4.76875 2.04375
2.04375 2.04375 4.76875
4.76875 4.76875 4.76875
ITEM: TIMESTEP
1430
ITEM: NUMBER OF ATOMS
8
ITEM: BOX BOUNDS xy xz yz pp pp pp
0.0000000000000000e+00 5.5999999999999996e+00 0.0000000000000000e+00
0.0000000000000000e+00 5.5999999999999996e+00 0.0000000000000000e+00
0.0000000000000000e+00 5.5999999999999996e+00 0.0000000000000000e+00
ITEM: ATOMS x y z
0.68125 0.68125 0.68125
3.40625 3.40625 0.68125
3.40625 0.68125 3.40625
0.68125 3.40625 3.40625
4.76875 2.04375 2.04375
2.04375 4.76875 2.04375
2.04375 2.04375 4.76875
4.76875 4.76875 4.76875
ITEM: TIMESTEP
1440
ITEM: NUMBER OF ATOMS
8
ITEM: BOX BOUNDS xy xz yz pp pp pp
0.0000000000000000e+00 5.5999999999999996e+00 0.0000000000000000e+00
0.0000000000000000e+00 5.5999999999999996e+00 0.0000000000000000e+00
0.0000000000000000e+00 5.5999999999999996e+00 0.0000000000000000e+00
ITEM: ATOMS x y z
0.68125 0.68125 0.68125
3.40625 3.40625 0.68125
3.40625 0.68125 3.40625
0.68125 3.40625 3.40625
4.76875 2.04375 2.04375
2.04375 4.76875 2.04375
2.04375 2.04375 4.76875
4.76875 4.76875 4.76875
ITEM: TIMESTEP
1450
ITEM: NUMBER OF ATOMS
8
ITEM: BOX BOUNDS xy xz yz pp pp pp
0.0000000000000000e+00 5.5999999999999996e+00 0.0000000000000000e+00
0.0000000000000000e+00 5.5999999999999996e+00 0.0000000000000000e+00
0.0000000000000000e+00 5.5999999999999996e+00 0.0000000000000000e+00
ITEM: ATOMS x y z
0.68125 0.68125 0.68125
3.40625 3.40625 0.68125
3.40625 0.68125 3.40625
0.68125 3.40625 3.40625
4.76875 2.04375 2.04375
2.04375 4.76875 2.04375
2.04375 2.04375 4.76875
4.76875 4.76875 4.76875
ITEM: TIMESTEP
1460
ITEM: NUMBER OF ATOMS
8
ITEM: BOX BOUNDS xy xz yz pp pp pp
0.0000000000000000e+00 5.5999999999999996e+00 0.0000000000000000e+00
0.0000000000000000e+00 5.5999999999999996e+00 0.0000000000000000e+00
0.0000000000000000e+00 5.5999999999999996e+00 0.0000000000000000e+00
ITEM: ATOMS x y z
0.68125 0.68125 0.68125
3.40625 3.40625 0.68125
3.40625 0.68125 3.40625
0.68125 3.40625 3.40625
4.76875 2.04375 2.04375
2.04375 4.76875 2.04375
2.04375 2.04375 4.76875
4.76875 4.76875 4.76875
ITEM: TIMESTEP
1470
ITEM: NUMBER OF ATOMS
8
ITEM: BOX BOUNDS xy xz yz pp pp pp
0.0000000000000000e+00 5.5999999999999996e+00 0.0000000000000000e+00
0.0000000000000000e+00 5.5999999999999996e+00 0.0000000000000000e+00
0.0000000000000000e+00 5.5999999999999996e+00 0.0000000000000000e+00
ITEM: ATOMS x y z
0.68125 0.68125 0.68125
3.40625 3.40625 0.68125
3.40625 0.68125 3.40625
0.68125 3.40625 3.40625
4.76875 2.04375 2.04375
2.04375 4.76875 2.04375
2.04375 2.04375 4.76875
4.76875 4.76875 4.76875
ITEM: TIMESTEP
1480
ITEM: NUMBER OF ATOMS
8
ITEM: BOX BOUNDS xy xz yz pp pp pp
0.0000000000000000e+00 5.5999999999999996e+00 0.0000000000000000e+00
0.0000000000000000e+00 5.5999999999999996e+00 0.0000000000000000e+00
0.0000000000000000e+00 5.5999999999999996e+00 0.0000000000000000e+00
ITEM: ATOMS x y z
0.68125 0.68125 0.68125
3.40625 3.40625 0.68125
3.40625 0.68125 3.40625
0.68125 3.40625 3.40625
4.76875 2.04375 2.04375
2.04375 4.76875 2.04375
2.04375 2.04375 4.76875
4.76875 4.76875 4.76875
ITEM: TIMESTEP
1490
ITEM: NUMBER OF ATOMS
8
ITEM: BOX BOUNDS xy xz yz pp pp pp
0.0000000000000000e+00 5.5999999999999996e+00 0.0000000000000000e+00
0.0000000000000000e+00 5.5999999999999996e+00 0.0000000000000000e+00
0.0000000000000000e+00 5.5999999999999996e+00 0.0000000000000000e+00
ITEM: ATOMS x y z
0.68125 0.68125 0.68125
3.40625 3.40625 0.68125
3.40625 0.68125 3.40625
0.68125 3.40625 3.40625
4.76875 2.04375 2.04375
2.04375 4.76875 2.04375
2.04375 2.04375 4.76875
4.76875 4.76875 4.76875
ITEM: TIMESTEP
1500
ITEM: NUMBER OF ATOMS
8
ITEM: BOX BOUNDS xy xz yz pp pp pp
0.0000000000000000e+00 5.5999999999999996e+00 0.0000000000000000e+00
0.0000000000000000e+00 5.5999999999999996e+00 0.0000000000000000e+00
0.0000000000000000e+00 5.5999999999999996e+00 0.0000000000000000e+00
ITEM: ATOMS x y z
0.68125 0.68125 0.68125
3.40625 3.40625 0.68125
3.40625 0.68125 3.40625
0.68125 3.40625 3.40625
4.76875 2.04375 2.04375
2.04375 4.76875 2.04375
2.04375 2.04375 4.76875
4.76875 4.76875 4.76875
ITEM: TIMESTEP
1510
ITEM: NUMBER OF ATOMS
8
ITEM: BOX BOUNDS xy xz yz pp pp pp
0.0000000000000000e+00 5.5999999999999996e+00 0.0000000000000000e+00
0.0000000000000000e+00 5.5999999999999996e+00 0.0000000000000000e+00
0.0000000000000000e+00 5.5999999999999996e+00 0.0000000000000000e+00
ITEM: ATOMS x y z
0.68125 0.68125 0.68125
3.40625 3.40625 0.68125
3.40625 0.68125 3.40625
0.68125 3.40625 3.40625
4.76875 2.04375 2.04375
2.04375 4.76875 2.04375
2.04375 2.04375 4.76875
4.76875 4.76875 4.76875
ITEM: TIMESTEP
1520
ITEM: NUMBER OF ATOMS
8
ITEM: BOX BOUNDS xy xz yz pp pp pp
0.0000000000000000e+00 5.5999999999999996e+00 0.0000000000000000e+00
0.0000000000000000e+00 5.5999999999999996e+00 0.0000000000000000e+00
0.0000000000000000e+00 5.5999999999999996e+00 0.0000000000000000e+00
ITEM: ATOMS x y z
0.68125 0.68125 0.68125
3.40625 3.40625 0.68125
3.40625 0.68125 3.40625
0.68125 3.40625 3.40625
4.76875 2.04375 2.04375
2.04375 4.76875 2.04375
2.04375 2.04375 4.76875
4.76875 4.76875 4.76875
ITEM: TIMESTEP
1530
ITEM: NUMBER OF ATOMS
8
ITEM: BOX BOUNDS xy xz yz pp pp pp
0.0000000000000000e+00 5.5999999999999996e+00 0.0000000000000000e+00
0.0000000000000000e+00 5.5999999999999996e+00 0.0000000000000000e+00
0.0000000000000000e+00 5.5999999999999996e+00 0.0000000000000000e+00
ITEM: ATOMS x y z
0.68125 0.68125 0.68125
3.40625 3.40625 0.68125
3.40625 0.68125 3.40625
0.68125 3.40625 3.40625
4.76875 2.04375 2.04375
2.04375 4.76875 2.04375
2.04375 2.04375 4.76875
4.76875 4.76875 4.76875
ITEM: TIMESTEP
1540
ITEM: NUMBER OF ATOMS
8
ITEM: BOX BOUNDS xy xz yz pp pp pp
0.0000000000000000e+00 5.5999999999999996e+00 0.0000000000000000e+00
0.0000000000000000e+00 5.5999999999999996e+00 0.0000000000000000e+00
0.0000000000000000e+00 5.5999999999999996e+00 0.0000000000000000e+00
ITEM: ATOMS x y z
0.68125 0.68125 0.68125
3.40625 3.40625 0.68125
3.40625 0.68125 3.40625
0.68125 3.40625 3.40625
4.76875 2.04375 2.04375
2.04375 4.76875 2.04375
2.04375 2.04375 4.76875
4.76875 4.76875 4.76875
ITEM: TIMESTEP
1550
ITEM: NUMBER OF ATOMS
8
ITEM: BOX BOUNDS xy xz yz pp pp pp
0.0000000000000000e+00 5.5999999999999996e+00 0.0000000000000000e+00
0.0000000000000000e+00 5.5999999999999996e+00 0.0000000000000000e+00
0.0000000000000000e+00 5.5999999999999996e+00 0.0000000000000000e+00
ITEM: ATOMS x y z
0.68125 0.68125 0.68125
3.40625 3.40625 0.68125
3.40625 0.68125 3.40625
0.68125 3.40625 3.40625
4.76875 2.04375 2.04375
2.04375 4.76875 2.04375
2.04375 2.04375 4.76875
4.76875 4.76875 4.76875
ITEM: TIMESTEP
1560
ITEM: NUMBER OF ATOMS
8
ITEM: BOX BOUNDS xy xz yz pp pp pp
0.0000000000000000e+00 5.5999999999999996e+00 0.0000000000000000e+00
0.0000000000000000e+00 5.5999999999999996e+00 0.0000000000000000e+00
0.0000000000000000e+00 5.5999999999999996e+00 0.0000000000000000e+00
ITEM: ATOMS x y z
0.68125 0.68125 0.68125
3.40625 3.40625 0.68125
3.40625 0.68125 3.40625
0.68125 3.40625 3.40625
4.76875 2.04375 2.04375
2.04375 4.76875 2.04375
2.04375 2.04375 4.76875
4.76875 4.76875 4.76875
ITEM: TIMESTEP
1570
ITEM: NUMBER OF ATOMS
8
ITEM: BOX BOUNDS xy xz yz pp pp pp
0.0000000000000000e+00 5.5999999999999996e+00 0.0000000000000000e+00
0.0000000000000000e+00 5.5999999999999996e+00 0.0000000000000000e+00
0.0000000000000000e+00 5.5999999999999996e+00 0.0000000000000000e+00
ITEM: ATOMS x y z
0.68125 0.68125 0.68125
3.40625 3.40625 0.68125
3.40625 0.68125 3.40625
0.68125 3.40625 3.40625
4.76875 2.04375 2.04375
2.04375 4.76875 2.04375
2.04375 2.04375 4.76875
4.76875 4.76875 4.76875
ITEM: TIMESTEP
1580
ITEM: NUMBER OF ATOMS
8
ITEM: BOX BOUNDS xy xz yz pp pp pp
0.0000000000000000e+00 5.5999999999999996e+00 0.0000000000000000e+00
0.0000000000000000e+00 5.5999999999999996e+00 0.0000000000000000e+00
0.0000000000000000e+00 5.5999999999999996e+00 0.0000000000000000e+00
ITEM: ATOMS x y z
0.68125 0.68125 0.68125
3.40625 3.40625 0.68125
3.40625 0.68125 3.40625
0.68125 3.40625 3.40625
4.76875 2.04375 2.04375
2.04375 4.76875 2.04375
2.04375 2.04375 4.76875
4.76875 4.76875 4.76875
ITEM: TIMESTEP
1590
ITEM: NUMBER OF ATOMS
8
ITEM: BOX BOUNDS xy xz yz pp pp pp
0.0000000000000000e+00 5.5999999999999996e+00 0.0000000000000000e+00
0.0000000000000000e+00 5.5999999999999996e+00 0.0000000000000000e+00
0.0000000000000000e+00 5.5999999999999996e+00 0.0000000000000000e+00
ITEM: ATOMS x y z
0.68125 0.68125 0.68125
3.40625 3.40625 0.68125
3.40625 0.68125 3.40625
0.68125 3.40625 3.40625
4.76875 2.04375 2.04375
2.04375 4.76875 2.04375
2.04375 2.04375 4.76875
4.76875 4.76875 4.76875
ITEM: TIMESTEP
1600
ITEM: NUMBER OF ATOMS
8
ITEM: BOX BOUNDS xy xz yz pp pp pp
0.0000000000000000e+00 5.5999999999999996e+00 0.0000000000000000e+00
0.0000000000000000e+00 5.5999999999999996e+00 0.0000000000000000e+00
0.0000000000000000e+00 5.5999999999999996e+00 0.0000000000000000e+00
ITEM: ATOMS x y z
0.68125 0.68125 0.68125
3.40625 3.40625 0.68125
3.40625 0.68125 3.40625
0.68125 3.40625 3.40625
4.76875 2.04375 2.04375
2.04375 4.76875 2.04375
2.04375 2.04375 4.76875
4.76875 4.76875 4.76875
ITEM: TIMESTEP
1610
ITEM: NUMBER OF ATOMS
8
ITEM: BOX BOUNDS xy xz yz pp pp pp
0.0000000000000000e+00 5.5999999999999996e+00 0.0000000000000000e+00
0.0000000000000000e+00 5.5999999999999996e+00 0.0000000000000000e+00
0.0000000000000000e+00 5.5999999999999996e+00 0.0000000000000000e+00
ITEM: ATOMS x y z
0.68125 0.68125 0.68125
3.40625 3.40625 0.68125
3.40625 0.68125 3.40625
0.68125 3.40625 3.40625
4.76875 2.04375 2.04375
2.04375 4.76875 2.04375
2.04375 2.04375 4.76875
4.76875 4.76875 4.76875
ITEM: TIMESTEP
1620
ITEM: NUMBER OF ATOMS
8
ITEM: BOX BOUNDS xy xz yz pp pp pp
0.0000000000000000e+00 5.5999999999999996e+00 0.0000000000000000e+00
0.0000000000000000e+00 5.5999999999999996e+00 0.0000000000000000e+00
0.0000000000000000e+00 5.5999999999999996e+00 0.0000000000000000e+00
ITEM: ATOMS x y z
0.68125 0.68125 0.68125
3.40625 3.40625 0.68125
3.40625 0.68125 3.40625
0.68125 3.40625 3.40625
4.76875 2.04375 2.04375
2.04375 4.76875 2.04375
2.04375 2.04375 4.76875
4.76875 4.76875 4.76875
ITEM: TIMESTEP
1630
ITEM: NUMBER OF ATOMS
8
ITEM: BOX BOUNDS xy xz yz pp pp pp
0.0000000000000000e+00 5.5999999999999996e+00 0.0000000000000000e+00
0.0000000000000000e+00 5.5999999999999996e+00 0.0000000000000000e+00
0.0000000000000000e+00 5.5999999999999996e+00 0.0000000000000000e+00
ITEM: ATOMS x y z
0.68125 0.68125 0.68125
3.40625 3.40625 0.68125
3.40625 0.68125 3.40625
0.68125 3.40625 3.40625
4.76875 2.04375 2.04375
2.04375 4.76875 2.04375
2.04375 2.04375 4.76875
4.76875 4.76875 4.76875
ITEM: TIMESTEP
1640
ITEM: NUMBER OF ATOMS
8
ITEM: BOX BOUNDS xy xz yz pp pp pp
0.0000000000000000e+00 5.5999999999999996e+00 0.0000000000000000e+00
0.0000000000000000e+00 5.5999999999999996e+00 0.0000000000000000e+00
0.0000000000000000e+00 5.5999999999999996e+00 0.0000000000000000e+00
ITEM: ATOMS x y z
0.68125 0.68125 0.68125
3.40625 3.40625 0.68125
3.40625 0.68125 3.40625
0.68125 3.40625 3.40625
4.76875 2.04375 2.04375
2.04375 4.76875 2.04375
2.04375 2.04375 4.76875
4.76875 4.76875 4.76875
ITEM: TIMESTEP
1650
ITEM: NUMBER OF ATOMS
8
ITEM: BOX BOUNDS xy xz yz pp pp pp
0.0000000000000000e+00 5.5999999999999996e+00 0.0000000000000000e+00
0.0000000000000000e+00 5.5999999999999996e+00 0.0000000000000000e+00
0.0000000000000000e+00 5.5999999999999996e+00 0.0000000000000000e+00
ITEM: ATOMS x y z
0.68125 0.68125 0.68125
3.40625 3.40625 0.68125
3.40625 0.68125 3.40625
0.68125 3.40625 3.40625
4.76875 2.04375 2.04375
2.04375 4.76875 2.04375
2.04375 2.04375 4.76875
4.76875 4.76875 4.76875
ITEM: TIMESTEP
1660
ITEM: NUMBER OF ATOMS
8
ITEM: BOX BOUNDS xy xz yz pp pp pp
0.0000000000000000e+00 5.5999999999999996e+00 0.0000000000000000e+00
0.0000000000000000e+00 5.5999999999999996e+00 0.0000000000000000e+00
0.0000000000000000e+00 5.5999999999999996e+00 0.0000000000000000e+00
ITEM: ATOMS x y z
0.68125 0.68125 0.68125
3.40625 3.40625 0.68125
3.40625 0.68125 3.40625
0.68125 3.40625 3.40625
4.76875 2.04375 2.04375
2.04375 4.76875 2.04375
2.04375 2.04375 4.76875
4.76875 4.76875 4.76875
ITEM: TIMESTEP
1670
ITEM: NUMBER OF ATOMS
8
ITEM: BOX BOUNDS xy xz yz pp pp pp
0.0000000000000000e+00 5.5999999999999996e+00 0.0000000000000000e+00
0.0000000000000000e+00 5.5999999999999996e+00 0.0000000000000000e+00
0.0000000000000000e+00 5.5999999999999996e+00 0.0000000000000000e+00
ITEM: ATOMS x y z
0.68125 0.68125 0.68125
3.40625 3.40625 0.68125
3.40625 0.68125 3.40625
0.68125 3.40625 3.40625
4.76875 2.04375 2.04375
2.04375 4.76875 2.04375
2.04375 2.04375 4.76875
4.76875 4.76875 4.76875
ITEM: TIMESTEP
1680
ITEM: NUMBER OF ATOMS
8
ITEM: BOX BOUNDS xy xz yz pp pp pp
0.0000000000000000e+00 5.5999999999999996e+00 0.0000000000000000e+00
0.0000000000000000e+00 5.5999999999999996e+00 0.0000000000000000e+00
0.0000000000000000e+00 5.5999999999999996e+00 0.0000000000000000e+00
ITEM: ATOMS x y z
0.68125 0.68125 0.68125
3.40625 3.40625 0.68125
3.40625 0.68125 3.40625
0.68125 3.40625 3.40625
4.76875 2.04375 2.04375
2.04375 4.76875 2.04375
2.04375 2.04375 4.76875
4.76875 4.76875 4.76875
ITEM: TIMESTEP
1690
ITEM: NUMBER OF ATOMS
8
ITEM: BOX BOUNDS xy xz yz pp pp pp
0.0000000000000000e+00 5.5999999999999996e+00 0.0000000000000000e+00
0.0000000000000000e+00 5.5999999999999996e+00 0.0000000000000000e+00
0.0000000000000000e+00 5.5999999999999996e+00 0.0000000000000000e+00
ITEM: ATOMS x y z
0.68125 0.68125 0.68125
3.40625 3.40625 0.68125
3.40625 0.68125 3.40625
0.68125 3.40625 3.40625
4.76875 2.04375 2.04375
2.04375 4.76875 2.04375
2.04375 2.04375 4.76875
4.76875 4.76875 4.76875
ITEM: TIMESTEP
1700
ITEM: NUMBER OF ATOMS
8
ITEM: BOX BOUNDS xy xz yz pp pp pp
0.0000000000000000e+00 5.5999999999999996e+00 0.0000000000000000e+00
0.0000000000000000e+00 5.5999999999999996e+00 0.0000000000000000e+00
0.0000000000000000e+00 5.5999999999999996e+00 0.0000000000000000e+00
ITEM: ATOMS x y z
0.68125 0.68125 0.68125
3.40625 3.40625 0.68125
3.40625 0.68125 3.40625
0.68125 3.40625 3.40625
4.76875 2.04375 2.04375
2.04375 4.76875 2.04375
2.04375 2.04375 4.76875
4.76875 4.76875 4.76875
ITEM: TIMESTEP
1710
ITEM: NUMBER OF ATOMS
8
ITEM: BOX BOUNDS xy xz yz pp pp pp
0.0000000000000000e+00 5.5999999999999996e+00 0.0000000000000000e+00
0.0000000000000000e+00 5.5999999999999996e+00 0.0000000000000000e+00
0.0000000000000000e+00 5.5999999999999996e+00 0.0000000000000000e+00
ITEM: ATOMS x y z
0.68125 0.68125 0.68125
3.40625 3.40625 0.68125
3.40625 0.68125 3.40625
0.68125 3.40625 3.40625
4.76875 2.04375 2.04375
2.04375 4.76875 2.04375
2.04375 2.04375 4.76875
4.76875 4.76875 4.76875
ITEM: TIMESTEP
1720
ITEM: NUMBER OF ATOMS
8
ITEM: BOX BOUNDS xy xz yz pp pp pp
0.0000000000000000e+00 5.5999999999999996e+00 0.0000000000000000e+00
0.0000000000000000e+00 5.5999999999999996e+00 0.0000000000000000e+00
0.0000000000000000e+00 5.5999999999999996e+00 0.0000000000000000e+00
ITEM: ATOMS x y z
0.68125 0.68125 0.68125
3.40625 3.40625 0.68125
3.40625 0.68125 3.40625
0.68125 3.40625 3.40625
4.76875 2.04375 2.04375
2.04375 4.76875 2.04375
2.04375 2.04375 4.76875
4.76875 4.76875 4.76875
ITEM: TIMESTEP
1730
ITEM: NUMBER OF ATOMS
8
ITEM: BOX BOUNDS xy xz yz pp pp pp
0.0000000000000000e+00 5.5999999999999996e+00 0.0000000000000000e+00
0.0000000000000000e+00 5.5999999999999996e+00 0.0000000000000000e+00
0.0000000000000000e+00 5.5999999999999996e+00 0.0000000000000000e+00
ITEM: ATOMS x y z
0.68125 0.68125 0.68125
3.40625 3.40625 0.68125
3.40625 0.68125 3.40625
0.68125 3.40625 3.40625
4.76875 2.04375 2.04375
2.04375 4.76875 2.04375
2.04375 2.04375 4.76875
4.76875 4.76875 4.76875
ITEM: TIMESTEP
1740
ITEM: NUMBER OF ATOMS
8
ITEM: BOX BOUNDS xy xz yz pp pp pp
0.0000000000000000e+00 5.5999999999999996e+00 0.0000000000000000e+00
0.0000000000000000e+00 5.5999999999999996e+00 0.0000000000000000e+00
0.0000000000000000e+00 5.5999999999999996e+00 0.0000000000000000e+00
ITEM: ATOMS x y z
0.68125 0.68125 0.68125
3.40625 3.40625 0.68125
3.40625 0.68125 3.40625
0.68125 3.40625 3.40625
4.76875 2.04375 2.04375
2.04375 4.76875 2.04375
2.04375 2.04375 4.76875
4.76875 4.76875 4.76875
ITEM: TIMESTEP
1750
ITEM: NUMBER OF ATOMS
8
ITEM: BOX BOUNDS xy xz yz pp pp pp
0.0000000000000000e+00 5.5999999999999996e+00 0.0000000000000000e+00
0.0000000000000000e+00 5.5999999999999996e+00 0.0000000000000000e+00
0.0000000000000000e+00 5.5999999999999996e+00 0.0000000000000000e+00
ITEM: ATOMS x y z
0.68125 0.68125 0.68125
3.40625 3.40625 0.68125
3.40625 0.68125 3.40625
0.68125 3.40625 3.40625
4.76875 2.04375 2.04375
2.04375 4.76875 2.04375
2.04375 2.04375 4.76875
4.76875 4.76875 4.76875
ITEM: TIMESTEP
1760
ITEM: NUMBER OF ATOMS
8
ITEM: BOX BOUNDS xy xz yz pp pp pp
0.0000000000000000e+00 5.5999999999999996e+00 0.0000000000000000e+00
0.0000000000000000e+00 5.5999999999999996e+00 0.0000000000000000e+00
0.0000000000000000e+00 5.5999999999999996e+00 0.0000000000000000e+00
ITEM: ATOMS x y z
0.68125 0.68125 0.68125
3.40625 3.40625 0.68125
3.40625 0.68125 3.40625
0.68125 3.40625 3.40625
4.76875 2.04375 2.04375
2.04375 4.76875 2.04375
2.04375 2.04375 4.76875
4.76875 4.76875 4.76875
ITEM: TIMESTEP
1770
ITEM: NUMBER OF ATOMS
8
ITEM: BOX BOUNDS xy xz yz pp pp pp
0.0000000000000000e+00 5.5999999999999996e+00 0.0000000000000000e+00
0.0000000000000000e+00 5.5999999999999996e+00 0.0000000000000000e+00
0.0000000000000000e+00 5.5999999999999996e+00 0.0000000000000000e+00
ITEM: ATOMS x y z
0.68125 0.68125 0.68125
3.40625 3.40625 0.68125
3.40625 0.68125 3.40625
0.68125 3.40625 3.40625
4.76875 2.04375 2.04375
2.04375 4.76875 2.04375
2.04375 2.04375 4.76875
4.76875 4.76875 4.76875
ITEM: TIMESTEP
1780
ITEM: NUMBER OF ATOMS
8
ITEM: BOX BOUNDS xy xz yz pp pp pp
0.0000000000000000e+00 5.5999999999999996e+00 0.0000000000000000e+00
0.0000000000000000e+00 5.5999999999999996e+00 0.0000000000000000e+00
0.0000000000000000e+00 5.5999999999999996e+00 0.0000000000000000e+00
ITEM: ATOMS x y z
0.68125 0.68125 0.68125
3.40625 3.40625 0.68125
3.40625 0.68125 3.40625
0.68125 3.40625 3.40625
4.76875 2.04375 2.04375
2.04375 4.76875 2.04375
2.04375 2.04375 4.76875
4.76875 4.76875 4.76875
ITEM: TIMESTEP
1790
ITEM: NUMBER OF ATOMS
8
ITEM: BOX BOUNDS xy xz yz pp pp pp
0.0000000000000000e+00 5.5999999999999996e+00 0.0000000000000000e+00
0.0000000000000000e+00 5.5999999999999996e+00 0.0000000000000000e+00
0.0000000000000000e+00 5.5999999999999996e+00 0.0000000000000000e+00
ITEM: ATOMS x y z
0.68125 0.68125 0.68125
3.40625 3.40625 0.68125
3.40625 0.68125 3.40625
0.68125 3.40625 3.40625
4.76875 2.04375 2.04375
2.04375 4.76875 2.04375
2.04375 2.04375 4.76875
4.76875 4.76875 4.76875
ITEM: TIMESTEP
1800
ITEM: NUMBER OF ATOMS
8
ITEM: BOX BOUNDS xy xz yz pp pp pp
0.0000000000000000e+00 5.5999999999999996e+00 0.0000000000000000e+00
0.0000000000000000e+00 5.5999999999999996e+00 0.0000000000000000e+00
0.0000000000000000e+00 5.5999999999999996e+00 0.0000000000000000e+00
ITEM: ATOMS x y z
0.68125 0.68125 0.68125
3.40625 3.40625 0.68125
3.40625 0.68125 3.40625
0.68125 3.40625 3.40625
4.76875 2.04375 2.04375
2.04375 4.76875 2.04375
2.04375 2.04375 4.76875
4.76875 4.76875 4.76875
ITEM: TIMESTEP
1810
ITEM: NUMBER OF ATOMS
8
ITEM: BOX BOUNDS xy xz yz pp pp pp
0.0000000000000000e+00 5.5999999999999996e+00 0.0000000000000000e+00
0.0000000000000000e+00 5.5999999999999996e+00 0.0000000000000000e+00
0.0000000000000000e+00 5.5999999999999996e+00 0.0000000000000000e+00
ITEM: ATOMS x y z
0.68125 0.68125 0.68125
3.40625 3.40625 0.68125
3.40625 0.68125 3.40625
0.68125 3.40625 3.40625
4.76875 2.04375 2.04375
2.04375 4.76875 2.04375
2.04375 2.04375 4.76875
4.76875 4.76875 4.76875
ITEM: TIMESTEP
1820
ITEM: NUMBER OF ATOMS
8
ITEM: BOX BOUNDS xy xz yz pp pp pp
0.0000000000000000e+00 5.5999999999999996e+00 0.0000000000000000e+00
0.0000000000000000e+00 5.5999999999999996e+00 0.0000000000000000e+00
0.0000000000000000e+00 5.5999999999999996e+00 0.0000000000000000e+00
ITEM: ATOMS x y z
0.68125 0.68125 0.68125
3.40625 3.40625 0.68125
3.40625 0.68125 3.40625
0.68125 3.40625 3.40625
4.76875 2.04375 2.04375
2.04375 4.76875 2.04375
2.04375 2.04375 4.76875
4.76875 4.76875 4.76875
ITEM: TIMESTEP
1830
ITEM: NUMBER OF ATOMS
8
ITEM: BOX BOUNDS xy xz yz pp pp pp
0.0000000000000000e+00 5.5999999999999996e+00 0.0000000000000000e+00
0.0000000000000000e+00 5.5999999999999996e+00 0.0000000000000000e+00
0.0000000000000000e+00 5.5999999999999996e+00 0.0000000000000000e+00
ITEM: ATOMS x y z
0.68125 0.68125 0.68125
3.40625 3.40625 0.68125
3.40625 0.68125 3.40625
0.68125 3.40625 3.40625
4.76875 2.04375 2.04375
2.04375 4.76875 2.04375
2.04375 2.04375 4.76875
4.76875 4.76875 4.76875
ITEM: TIMESTEP
1840
ITEM: NUMBER OF ATOMS
8
ITEM: BOX BOUNDS xy xz yz pp pp pp
0.0000000000000000e+00 5.5999999999999996e+00 0.0000000000000000e+00
0.0000000000000000e+00 5.5999999999999996e+00 0.0000000000000000e+00
0.0000000000000000e+00 5.5999999999999996e+00 0.0000000000000000e+00
ITEM: ATOMS x y z
0.68125 0.68125 0.68125
3.40625 3.40625 0.68125
3.40625 0.68125 3.40625
0.68125 3.40625 3.40625
4.76875 2.04375 2.04375
2.04375 4.76875 2.04375
2.04375 2.04375 4.76875
4.76875 4.76875 4.76875
ITEM: TIMESTEP
1850
ITEM: NUMBER OF ATOMS
8
ITEM: BOX BOUNDS xy xz yz pp pp pp
0.0000000000000000e+00 5.5999999999999996e+00 0.0000000000000000e+00
0.0000000000000000e+00 5.5999999999999996e+00 0.0000000000000000e+00
0.0000000000000000e+00 5.5999999999999996e+00 0.0000000000000000e+00
ITEM: ATOMS x y z
0.68125 0.68125 0.68125
3.40625 3.40625 0.68125
3.40625 0.68125 3.40625
0.68125 3.40625 3.40625
4.76875 2.04375 2.04375
2.04375 4.76875 2.04375
2.04375 2.04375 4.76875
4.76875 4.76875 4.76875
ITEM: TIMESTEP
1860
ITEM: NUMBER OF ATOMS
8
ITEM: BOX BOUNDS xy xz yz pp pp pp
0.0000000000000000e+00 5.5999999999999996e+00 0.0000000000000000e+00
0.0000000000000000e+00 5.5999999999999996e+00 0.0000000000000000e+00
0.0000000000000000e+00 5.5999999999999996e+00 0.0000000000000000e+00
ITEM: ATOMS x y z
0.68125 0.68125 0.68125
3.40625 3.40625 0.68125
3.40625 0.68125 3.40625
0.68125 3.40625 3.40625
4.76875 2.04375 2.04375
2.04375 4.76875 2.04375
2.04375 2.04375 4.76875
4.76875 4.76875 4.76875
ITEM: TIMESTEP
1870
ITEM: NUMBER OF ATOMS
8
ITEM: BOX BOUNDS xy xz yz pp pp pp
0.0000000000000000e+00 5.5999999999999996e+00 0.0000000000000000e+00
0.0000000000000000e+00 5.5999999999999996e+00 0.0000000000000000e+00
0.0000000000000000e+00 5.5999999999999996e+00 0.0000000000000000e+00
ITEM: ATOMS x y z
0.68125 0.68125 0.68125
3.40625 3.40625 0.68125
3.40625 0.68125 3.40625
0.68125 3.40625 3.40625
4.76875 2.04375 2.04375
2.04375 4.76875 2.04375
2.04375 2.04375 4.76875
4.76875 4.76875 4.76875
ITEM: TIMESTEP
1880
ITEM: NUMBER OF ATOMS
8
ITEM: BOX BOUNDS xy xz yz pp pp pp
0.0000000000000000e+00 5.5999999999999996e+00 0.0000000000000000e+00
0.0000000000000000e+00 5.5999999999999996e+00 0.0000000000000000e+00
0.0000000000000000e+00 5.5999999999999996e+00 0.0000000000000000e+00
ITEM: ATOMS x y z
0.68125 0.68125 0.68125
3.40625 3.40625 0.68125
3.40625 0.68125 3.40625
0.68125 3.40625 3.40625
4.76875 2.04375 2.04375
2.04375 4.76875 2.04375
2.04375 2.04375 4.76875
4.76875 4.76875 4.76875
ITEM: TIMESTEP
1890
ITEM: NUMBER OF ATOMS
8
ITEM: BOX BOUNDS xy xz yz pp pp pp
0.0000000000000000e+00 5.5999999999999996e+00 0.0000000000000000e+00
0.0000000000000000e+00 5.5999999999999996e+00 0.0000000000000000e+00
0.0000000000000000e+00 5.5999999999999996e+00 0.0000000000000000e+00
ITEM: ATOMS x y z
0.68125 0.68125 0.68125
3.40625 3.40625 0.68125
3.40625 0.68125 3.40625
0.68125 3.40625 3.40625
4.76875 2.04375 2.04375
2.04375 4.76875 2.04375
2.04375 2.04375 4.76875
4.76875 4.76875 4.76875
ITEM: TIMESTEP
1900
ITEM: NUMBER OF ATOMS
8
ITEM: BOX BOUNDS xy xz yz pp pp pp
0.0000000000000000e+00 5.5999999999999996e+00 0.0000000000000000e+00
0.0000000000000000e+00 5.5999999999999996e+00 0.0000000000000000e+00
0.0000000000000000e+00 5.5999999999999996e+00 0.0000000000000000e+00
ITEM: ATOMS x y z
0.68125 0.68125 0.68125
3.40625 3.40625 0.68125
3.40625 0.68125 3.40625
0.68125 3.40625 3.40625
4.76875 2.04375 2.04375
2.04375 4.76875 2.04375
2.04375 2.04375 4.76875
4.76875 4.76875 4.76875
ITEM: TIMESTEP
1910
ITEM: NUMBER OF ATOMS
8
ITEM: BOX BOUNDS xy xz yz pp pp pp
0.0000000000000000e+00 5.5999999999999996e+00 0.0000000000000000e+00
0.0000000000000000e+00 5.5999999999999996e+00 0.0000000000000000e+00
0.0000000000000000e+00 5.5999999999999996e+00 0.0000000000000000e+00
ITEM: ATOMS x y z
0.68125 0.68125 0.68125
3.40625 3.40625 0.68125
3.40625 0.68125 3.40625
0.68125 3.40625 3.40625
4.76875 2.04375 2.04375
2.04375 4.76875 2.04375
2.04375 2.04375 4.76875
4.76875 4.76875 4.76875
ITEM: TIMESTEP
1920
ITEM: NUMBER OF ATOMS
8
ITEM: BOX BOUNDS xy xz yz pp pp pp
0.0000000000000000e+00 5.5999999999999996e+00 0.0000000000000000e+00
0.0000000000000000e+00 5.5999999999999996e+00 0.0000000000000000e+00
0.0000000000000000e+00 5.5999999999999996e+00 0.0000000000000000e+00
ITEM: ATOMS x y z
0.68125 0.68125 0.68125
3.40625 3.40625 0.68125
3.40625 0.68125 3.40625
0.68125 3.40625 3.40625
4.76875 2.04375 2.04375
2.04375 4.76875 2.04375
2.04375 2.04375 4.76875
4.76875 4.76875 4.76875
ITEM: TIMESTEP
1930
ITEM: NUMBER OF ATOMS
8
ITEM: BOX BOUNDS xy xz yz pp pp pp
0.0000000000000000e+00 5.5999999999999996e+00 0.0000000000000000e+00
0.0000000000000000e+00 5.5999999999999996e+00 0.0000000000000000e+00
0.0000000000000000e+00 5.5999999999999996e+00 0.0000000000000000e+00
ITEM: ATOMS x y z
0.68125 0.68125 0.68125
3.40625 3.40625 0.68125
3.40625 0.68125 3.40625
0.68125 3.40625 3.40625
4.76875 2.04375 2.04375
2.04375 4.76875 2.04375
2.04375 2.04375 4.76875
4.76875 4.76875 4.76875
ITEM: TIMESTEP
1940
ITEM: NUMBER OF ATOMS
8
ITEM: BOX BOUNDS xy xz yz pp pp pp
0.0000000000000000e+00 5.5999999999999996e+00 0.0000000000000000e+00
0.0000000000000000e+00 5.5999999999999996e+00 0.0000000000000000e+00
0.0000000000000000e+00 5.5999999999999996e+00 0.0000000000000000e+00
ITEM: ATOMS x y z
0.68125 0.68125 0.68125
3.40625 3.40625 0.68125
3.40625 0.68125 3.40625
0.68125 3.40625 3.40625
4.76875 2.04375 2.04375
2.04375 4.76875 2.04375
2.04375 2.04375 4.76875
4.76875 4.76875 4.76875
ITEM: TIMESTEP
1950
ITEM: NUMBER OF ATOMS
8
ITEM: BOX BOUNDS xy xz yz pp pp pp
0.0000000000000000e+00 5.5999999999999996e+00 0.0000000000000000e+00
0.0000000000000000e+00 5.5999999999999996e+00 0.0000000000000000e+00
0.0000000000000000e+00 5.5999999999999996e+00 0.0000000000000000e+00
ITEM: ATOMS x y z
0.68125 0.68125 0.68125
3.40625 3.40625 0.68125
3.40625 0.68125 3.40625
0.68125 3.40625 3.40625
4.76875 2.04375 2.04375
2.04375 4.76875 2.04375
2.04375 2.04375 4.76875
4.76875 4.76875 4.76875
ITEM: TIMESTEP
1960
ITEM: NUMBER OF ATOMS
8
ITEM: BOX BOUNDS xy xz yz pp pp pp
0.0000000000000000e+00 5.5999999999999996e+00 0.0000000000000000e+00
0.0000000000000000e+00 5.5999999999999996e+00 0.0000000000000000e+00
0.0000000000000000e+00 5.5999999999999996e+00 0.0000000000000000e+00
ITEM: ATOMS x y z
0.68125 0.68125 0.68125
3.40625 3.40625 0.68125
3.40625 0.68125 3.40625
0.68125 3.40625 3.40625
4.76875 2.04375 2.04375
2.04375 4.76875 2.04375
2.04375 2.04375 4.76875
4.76875 4.76875 4.76875
ITEM: TIMESTEP
1970
ITEM: NUMBER OF ATOMS
8
ITEM: BOX BOUNDS xy xz yz pp pp pp
0.0000000000000000e+00 5.5999999999999996e+00 0.0000000000000000e+00
0.0000000000000000e+00 5.5999999999999996e+00 0.0000000000000000e+00
0.0000000000000000e+00 5.5999999999999996e+00 0.0000000000000000e+00
ITEM: ATOMS x y z
0.68125 0.68125 0.68125
3.40625 3.40625 0.68125
3.40625 0.68125 3.40625
0.68125 3.40625 3.40625
4.76875 2.04375 2.04375
2.04375 4.76875 2.04375
2.04375 2.04375 4.76875
4.76875 4.76875 4.76875
ITEM: TIMESTEP
1980
ITEM: NUMBER OF ATOMS
8
ITEM: BOX BOUNDS xy xz yz pp pp pp
0.0000000000000000e+00 5.5999999999999996e+00 0.0000000000000000e+00
0.0000000000000000e+00 5.5999999999999996e+00 0.0000000000000000e+00
0.0000000000000000e+00 5.5999999999999996e+00 0.0000000000000000e+00
ITEM: ATOMS x y z
0.68125 0.68125 0.68125
3.40625 3.40625 0.68125
3.40625 0.68125 3.40625
0.68125 3.40625 3.40625
4.76875 2.04375 2.04375
2.04375 4.76875 2.04375
2.04375 2.04375 4.76875
4.76875 4.76875 4.76875
ITEM: TIMESTEP
1990
ITEM: NUMBER OF ATOMS
8
ITEM: BOX BOUNDS xy xz yz pp pp pp
0.0000000000000000e+00 5.5999999999999996e+00 0.0000000000000000e+00
0.0000000000000000e+00 5.5999999999999996e+00 0.0000000000000000e+00
0.0000000000000000e+00 5.5999999999999996e+00 0.0000000000000000e+00
ITEM: ATOMS x y z
0.68125 0.68125 0.68125
3.40625 3.40625 0.68125
3.40625 0.68125 3.40625
0.68125 3.40625 3.40625
4.76875 2.04375 2.04375
2.04375 4.76875 2.04375
2.04375 2.04375 4.76875
4.76875 4.76875 4.76875
ITEM: TIMESTEP
2000
ITEM: NUMBER OF ATOMS
8
ITEM: BOX BOUNDS xy xz yz pp pp pp
0.0000000000000000e+00 5.5999999999999996e+00 0.0000000000000000e+00
0.0000000000000000e+00 5.5999999999999996e+00 0.0000000000000000e+00
0.0000000000000000e+00 5.5999999999999996e+00 0.0000000000000000e+00
ITEM: ATOMS x y z
0.68125 0.68125 0.68125
3.40625 3.40625 0.68125
3.40625 0.68125 3.40625
0.68125 3.40625 3.40625
4.76875 2.04375 2.04375
2.04375 4.76875 2.04375
2.04375 2.04375 4.76875
4.76875 4.76875 4.76875
ITEM: TIMESTEP
2010
ITEM: NUMBER OF ATOMS
8
ITEM: BOX BOUNDS xy xz yz pp pp pp
0.0000000000000000e+00 5.5999999999999996e+00 0.0000000000000000e+00
0.0000000000000000e+00 5.5999999999999996e+00 0.0000000000000000e+00
0.0000000000000000e+00 5.5999999999999996e+00 0.0000000000000000e+00
ITEM: ATOMS x y z
0.68125 0.68125 0.68125
3.40625 3.40625 0.68125
3.40625 0.68125 3.40625
0.68125 3.40625 3.40625
4.76875 2.04375 2.04375
2.04375 4.76875 2.04375
2.04375 2.04375 4.76875
4.76875 4.76875 4.76875
ITEM: TIMESTEP
2020
ITEM: NUMBER OF ATOMS
8
ITEM: BOX BOUNDS xy xz yz pp pp pp
0.0000000000000000e+00 5.5999999999999996e+00 0.0000000000000000e+00
0.0000000000000000e+00 5.5999999999999996e+00 0.0000000000000000e+00
0.0000000000000000e+00 5.5999999999999996e+00 0.0000000000000000e+00
ITEM: ATOMS x y z
0.68125 0.68125 0.68125
3.40625 3.40625 0.68125
3.40625 0.68125 3.40625
0.68125 3.40625 3.40625
4.76875 2.04375 2.04375
2.04375 4.76875 2.04375
2.04375 2.04375 4.76875
4.76875 4.76875 4.76875
ITEM: TIMESTEP
2030
ITEM: NUMBER OF ATOMS
8
ITEM: BOX BOUNDS xy xz yz pp pp pp
0.0000000000000000e+00 5.5999999999999996e+00 0.0000000000000000e+00
0.0000000000000000e+00 5.5999999999999996e+00 0.0000000000000000e+00
0.0000000000000000e+00 5.5999999999999996e+00 0.0000000000000000e+00
ITEM: ATOMS x y z
0.68125 0.68125 0.68125
3.40625 3.40625 0.68125
3.40625 0.68125 3.40625
0.68125 3.40625 3.40625
4.76875 2.04375 2.04375
2.04375 4.76875 2.04375
2.04375 2.04375 4.76875
4.76875 4.76875 4.76875
ITEM: TIMESTEP
2040
ITEM: NUMBER OF ATOMS
8
ITEM: BOX BOUNDS xy xz yz pp pp pp
0.0000000000000000e+00 5.5999999999999996e+00 0.0000000000000000e+00
0.0000000000000000e+00 5.5999999999999996e+00 0.0000000000000000e+00
0.0000000000000000e+00 5.5999999999999996e+00 0.0000000000000000e+00
ITEM: ATOMS x y z
0.68125 0.68125 0.68125
3.40625 3.40625 0.68125
3.40625 0.68125 3.40625
0.68125 3.40625 3.40625
4.76875 2.04375 2.04375
2.04375 4.76875 2.04375
2.04375 2.04375 4.76875
4.76875 4.76875 4.76875
ITEM: TIMESTEP
2050
ITEM: NUMBER OF ATOMS
8
ITEM: BOX BOUNDS xy xz yz pp pp pp
0.0000000000000000e+00 5.5999999999999996e+00 0.0000000000000000e+00
0.0000000000000000e+00 5.5999999999999996e+00 0.0000000000000000e+00
0.0000000000000000e+00 5.5999999999999996e+00 0.0000000000000000e+00
ITEM: ATOMS x y z
0.68125 0.68125 0.68125
3.40625 3.40625 0.68125
3.40625 0.68125 3.40625
0.68125 3.40625 3.40625
4.76875 2.04375 2.04375
2.04375 4.76875 2.04375
2.04375 2.04375 4.76875
4.76875 4.76875 4.76875
ITEM: TIMESTEP
2060
ITEM: NUMBER OF ATOMS
8
ITEM: BOX BOUNDS xy xz yz pp pp pp
0.0000000000000000e+00 5.5999999999999996e+00 0.0000000000000000e+00
0.0000000000000000e+00 5.5999999999999996e+00 0.0000000000000000e+00
0.0000000000000000e+00 5.5999999999999996e+00 0.0000000000000000e+00
ITEM: ATOMS x y z
0.68125 0.68125 0.68125
3.40625 3.40625 0.68125
3.40625 0.68125 3.40625
0.68125 3.40625 3.40625
4.76875 2.04375 2.04375
2.04375 4.76875 2.04375
2.04375 2.04375 4.76875
4.76875 4.76875 4.76875
ITEM: TIMESTEP
2070
ITEM: NUMBER OF ATOMS
8
ITEM: BOX BOUNDS xy xz yz pp pp pp
0.0000000000000000e+00 5.5999999999999996e+00 0.0000000000000000e+00
0.0000000000000000e+00 5.5999999999999996e+00 0.0000000000000000e+00
0.0000000000000000e+00 5.5999999999999996e+00 0.0000000000000000e+00
ITEM: ATOMS x y z
0.68125 0.68125 0.68125
3.40625 3.40625 0.68125
3.40625 0.68125 3.40625
0.68125 3.40625 3.40625
4.76875 2.04375 2.04375
2.04375 4.76875 2.04375
2.04375 2.04375 4.76875
4.76875 4.76875 4.76875
ITEM: TIMESTEP
2080
ITEM: NUMBER OF ATOMS
8
ITEM: BOX BOUNDS xy xz yz pp pp pp
0.0000000000000000e+00 5.5999999999999996e+00 0.0000000000000000e+00
0.0000000000000000e+00 5.5999999999999996e+00 0.0000000000000000e+00
0.0000000000000000e+00 5.5999999999999996e+00 0.0000000000000000e+00
ITEM: ATOMS x y z
0.68125 0.68125 0.68125
3.40625 3.40625 0.68125
3.40625 0.68125 3.40625
0.68125 3.40625 3.40625
4.76875 2.04375 2.04375
2.04375 4.76875 2.04375
2.04375 2.04375 4.76875
4.76875 4.76875 4.76875
ITEM: TIMESTEP
2090
ITEM: NUMBER OF ATOMS
8
ITEM: BOX BOUNDS xy xz yz pp pp pp
0.0000000000000000e+00 5.5999999999999996e+00 0.0000000000000000e+00
0.0000000000000000e+00 5.5999999999999996e+00 0.0000000000000000e+00
0.0000000000000000e+00 5.5999999999999996e+00 0.0000000000000000e+00
ITEM: ATOMS x y z
0.68125 0.68125 0.68125
3.40625 3.40625 0.68125
3.40625 0.68125 3.40625
0.68125 3.40625 3.40625
4.76875 2.04375 2.04375
2.04375 4.76875 2.04375
2.04375 2.04375 4.76875
4.76875 4.76875 4.76875
ITEM: TIMESTEP
2100
ITEM: NUMBER OF ATOMS
8
ITEM: BOX BOUNDS xy xz yz pp pp pp
0.0000000000000000e+00 5.5999999999999996e+00 0.0000000000000000e+00
0.0000000000000000e+00 5.5999999999999996e+00 0.0000000000000000e+00
0.0000000000000000e+00 5.5999999999999996e+00 0.0000000000000000e+00
ITEM: ATOMS x y z
0.68125 0.68125 0.68125
3.40625 3.40625 0.68125
3.40625 0.68125 3.40625
0.68125 3.40625 3.40625
4.76875 2.04375 2.04375
2.04375 4.76875 2.04375
2.04375 2.04375 4.76875
4.76875 4.76875 4.76875
ITEM: TIMESTEP
2110
ITEM: NUMBER OF ATOMS
8
ITEM: BOX BOUNDS xy xz yz pp pp pp
0.0000000000000000e+00 5.5999999999999996e+00 0.0000000000000000e+00
0.0000000000000000e+00 5.5999999999999996e+00 0.0000000000000000e+00
0.0000000000000000e+00 5.5999999999999996e+00 0.0000000000000000e+00
ITEM: ATOMS x y z
0.68125 0.68125 0.68125
3.40625 3.40625 0.68125
3.40625 0.68125 3.40625
0.68125 3.40625 3.40625
4.76875 2.04375 2.04375
2.04375 4.76875 2.04375
2.04375 2.04375 4.76875
4.76875 4.76875 4.76875
ITEM: TIMESTEP
2120
ITEM: NUMBER OF ATOMS
8
ITEM: BOX BOUNDS xy xz yz pp pp pp
0.0000000000000000e+00 5.5999999999999996e+00 0.0000000000000000e+00
0.0000000000000000e+00 5.5999999999999996e+00 0.0000000000000000e+00
0.0000000000000000e+00 5.5999999999999996e+00 0.0000000000000000e+00
ITEM: ATOMS x y z
0.68125 0.68125 0.68125
3.40625 3.40625 0.68125
3.40625 0.68125 3.40625
0.68125 3.40625 3.40625
4.76875 2.04375 2.04375
2.04375 4.76875 2.04375
2.04375 2.04375 4.76875
4.76875 4.76875 4.76875
ITEM: TIMESTEP
2130
ITEM: NUMBER OF ATOMS
8
ITEM: BOX BOUNDS xy xz yz pp pp pp
0.0000000000000000e+00 5.5999999999999996e+00 0.0000000000000000e+00
0.0000000000000000e+00 5.5999999999999996e+00 0.0000000000000000e+00
0.0000000000000000e+00 5.5999999999999996e+00 0.0000000000000000e+00
ITEM: ATOMS x y z
0.68125 0.68125 0.68125
3.40625 3.40625 0.68125
3.40625 0.68125 3.40625
0.68125 3.40625 3.40625
4.76875 2.04375 2.04375
2.04375 4.76875 2.04375
2.04375 2.04375 4.76875
4.76875 4.76875 4.76875
ITEM: TIMESTEP
2140
ITEM: NUMBER OF ATOMS
8
ITEM: BOX BOUNDS xy xz yz pp pp pp
0.0000000000000000e+00 5.5999999999999996e+00 0.0000000000000000e+00
0.0000000000000000e+00 5.5999999999999996e+00 0.0000000000000000e+00
0.0000000000000000e+00 5.5999999999999996e+00 0.0000000000000000e+00
ITEM: ATOMS x y z
0.68125 0.68125 0.68125
3.40625 3.40625 0.68125
3.40625 0.68125 3.40625
0.68125 3.40625 3.40625
4.76875 2.04375 2.04375
2.04375 4.76875 2.04375
2.04375 2.04375 4.76875
4.76875 4.76875 4.76875
ITEM: TIMESTEP
2150
ITEM: NUMBER OF ATOMS
8
ITEM: BOX BOUNDS xy xz yz pp pp pp
0.0000000000000000e+00 5.5999999999999996e+00 0.0000000000000000e+00
0.0000000000000000e+00 5.5999999999999996e+00 0.0000000000000000e+00
0.0000000000000000e+00 5.5999999999999996e+00 0.0000000000000000e+00
ITEM: ATOMS x y z
0.68125 0.68125 0.68125
3.40625 3.40625 0.68125
3.40625 0.68125 3.40625
0.68125 3.40625 3.40625
4.76875 2.04375 2.04375
2.04375 4.76875 2.04375
2.04375 2.04375 4.76875
4.76875 4.76875 4.76875
ITEM: TIMESTEP
2160
ITEM: NUMBER OF ATOMS
8
ITEM: BOX BOUNDS xy xz yz pp pp pp
0.0000000000000000e+00 5.5999999999999996e+00 0.0000000000000000e+00
0.0000000000000000e+00 5.5999999999999996e+00 0.0000000000000000e+00
0.0000000000000000e+00 5.5999999999999996e+00 0.0000000000000000e+00
ITEM: ATOMS x y z
0.68125 0.68125 0.68125
3.40625 3.40625 0.68125
3.40625 0.68125 3.40625
0.68125 3.40625 3.40625
4.76875 2.04375 2.04375
2.04375 4.76875 2.04375
2.04375 2.04375 4.76875
4.76875 4.76875 4.76875
ITEM: TIMESTEP
2170
ITEM: NUMBER OF ATOMS
8
ITEM: BOX BOUNDS xy xz yz pp pp pp
0.0000000000000000e+00 5.5999999999999996e+00 0.0000000000000000e+00
0.0000000000000000e+00 5.5999999999999996e+00 0.0000000000000000e+00
0.0000000000000000e+00 5.5999999999999996e+00 0.0000000000000000e+00
ITEM: ATOMS x y z
0.68125 0.68125 0.68125
3.40625 3.40625 0.68125
3.40625 0.68125 3.40625
0.68125 3.40625 3.40625
4.76875 2.04375 2.04375
2.04375 4.76875 2.04375
2.04375 2.04375 4.76875
4.76875 4.76875 4.76875
ITEM: TIMESTEP
2180
ITEM: NUMBER OF ATOMS
8
ITEM: BOX BOUNDS xy xz yz pp pp pp
0.0000000000000000e+00 5.5999999999999996e+00 0.0000000000000000e+00
0.0000000000000000e+00 5.5999999999999996e+00 0.0000000000000000e+00
0.0000000000000000e+00 5.5999999999999996e+00 0.0000000000000000e+00
ITEM: ATOMS x y z
0.68125 0.68125 0.68125
3.40625 3.40625 0.68125
3.40625 0.68125 3.40625
0.68125 3.40625 3.40625
4.76875 2.04375 2.04375
2.04375 4.76875 2.04375
2.04375 2.04375 4.76875
4.76875 4.76875 4.76875
ITEM: TIMESTEP
2190
ITEM: NUMBER OF ATOMS
8
ITEM: BOX BOUNDS xy xz yz pp pp pp
0.0000000000000000e+00 5.5999999999999996e+00 0.0000000000000000e+00
0.0000000000000000e+00 5.5999999999999996e+00 0.0000000000000000e+00
0.0000000000000000e+00 5.5999999999999996e+00 0.0000000000000000e+00
ITEM: ATOMS x y z
0.68125 0.68125 0.68125
3.40625 3.40625 0.68125
3.40625 0.68125 3.40625
0.68125 3.40625 3.40625
4.76875 2.04375 2.04375
2.04375 4.76875 2.04375
2.04375 2.04375 4.76875
4.76875 4.76875 4.76875
ITEM: TIMESTEP
2200
ITEM: NUMBER OF ATOMS
8
ITEM: BOX BOUNDS xy xz yz pp pp pp
0.0000000000000000e+00 5.5999999999999996e+00 0.0000000000000000e+00
0.0000000000000000e+00 5.5999999999999996e+00 0.0000000000000000e+00
0.0000000000000000e+00 5.5999999999999996e+00 0.0000000000000000e+00
ITEM: ATOMS x y z
0.68125 0.68125 0.68125
3.40625 3.40625 0.68125
3.40625 0.68125 3.40625
0.68125 3.40625 3.40625
4.76875 2.04375 2.04375
2.04375 4.76875 2.04375
2.04375 2.04375 4.76875
4.76875 4.76875 4.76875
ITEM: TIMESTEP
2210
ITEM: NUMBER OF ATOMS
8
ITEM: BOX BOUNDS xy xz yz pp pp pp
0.0000000000000000e+00 5.5999999999999996e+00 0.0000000000000000e+00
0.0000000000000000e+00 5.5999999999999996e+00 0.0000000000000000e+00
0.0000000000000000e+00 5.5999999999999996e+00 0.0000000000000000e+00
ITEM: ATOMS x y z
0.68125 0.68125 0.68125
3.40625 3.40625 0.68125
3.40625 0.68125 3.40625
0.68125 3.40625 3.40625
4.76875 2.04375 2.04375
2.04375 4.76875 2.04375
2.04375 2.04375 4.76875
4.76875 4.76875 4.76875
ITEM: TIMESTEP
2220
ITEM: NUMBER OF ATOMS
8
ITEM: BOX BOUNDS xy xz yz pp pp pp
0.0000000000000000e+00 5.5999999999999996e+00 0.0000000000000000e+00
0.0000000000000000e+00 5.5999999999999996e+00 0.0000000000000000e+00
0.0000000000000000e+00 5.5999999999999996e+00 0.0000000000000000e+00
ITEM: ATOMS x y z
0.68125 0.68125 0.68125
3.40625 3.40625 0.68125
3.40625 0.68125 3.40625
0.68125 3.40625 3.40625
4.76875 2.04375 2.04375
2.04375 4.76875 2.04375
2.04375 2.04375 4.76875
4.76875 4.76875 4.76875
ITEM: TIMESTEP
2230
ITEM: NUMBER OF ATOMS
8
ITEM: BOX BOUNDS xy xz yz pp pp pp
0.0000000000000000e+00 5.5999999999999996e+00 0.0000000000000000e+00
0.0000000000000000e+00 5.5999999999999996e+00 0.0000000000000000e+00
0.0000000000000000e+00 5.5999999999999996e+00 0.0000000000000000e+00
ITEM: ATOMS x y z
0.68125 0.68125 0.68125
3.40625 3.40625 0.68125
3.40625 0.68125 3.40625
0.68125 3.40625 3.40625
4.76875 2.04375 2.04375
2.04375 4.76875 2.04375
2.04375 2.04375 4.76875
4.76875 4.76875 4.76875
ITEM: TIMESTEP
2240
ITEM: NUMBER OF ATOMS
8
ITEM: BOX BOUNDS xy xz yz pp pp pp
0.0000000000000000e+00 5.5999999999999996e+00 0.0000000000000000e+00
0.0000000000000000e+00 5.5999999999999996e+00 0.0000000000000000e+00
0.0000000000000000e+00 5.5999999999999996e+00 0.0000000000000000e+00
ITEM: ATOMS x y z
0.68125 0.68125 0.68125
3.40625 3.40625 0.68125
3.40625 0.68125 3.40625
0.68125 3.40625 3.40625
4.76875 2.04375 2.04375
2.04375 4.76875 2.04375
2.04375 2.04375 4.76875
4.76875 4.76875 4.76875
ITEM: TIMESTEP
2250
ITEM: NUMBER OF ATOMS
8
ITEM: BOX BOUNDS xy xz yz pp pp pp
0.0000000000000000e+00 5.5999999999999996e+00 0.0000000000000000e+00
0.0000000000000000e+00 5.5999999999999996e+00 0.0000000000000000e+00
0.0000000000000000e+00 5.5999999999999996e+00 0.0000000000000000e+00
ITEM: ATOMS x y z
0.68125 0.68125 0.68125
3.40625 3.40625 0.68125
3.40625 0.68125 3.40625
0.68125 3.40625 3.40625
4.76875 2.04375 2.04375
2.04375 4.76875 2.04375
2.04375 2.04375 4.76875
4.76875 4.76875 4.76875
ITEM: TIMESTEP
2260
ITEM: NUMBER OF ATOMS
8
ITEM: BOX BOUNDS xy xz yz pp pp pp
0.0000000000000000e+00 5.5999999999999996e+00 0.0000000000000000e+00
0.0000000000000000e+00 5.5999999999999996e+00 0.0000000000000000e+00
0.0000000000000000e+00 5.5999999999999996e+00 0.0000000000000000e+00
ITEM: ATOMS x y z
0.68125 0.68125 0.68125
3.40625 3.40625 0.68125
3.40625 0.68125 3.40625
0.68125 3.40625 3.40625
4.76875 2.04375 2.04375
2.04375 4.76875 2.04375
2.04375 2.04375 4.76875
4.76875 4.76875 4.76875
ITEM: TIMESTEP
2270
ITEM: NUMBER OF ATOMS
8
ITEM: BOX BOUNDS xy xz yz pp pp pp
0.0000000000000000e+00 5.5999999999999996e+00 0.0000000000000000e+00
0.0000000000000000e+00 5.5999999999999996e+00 0.0000000000000000e+00
0.0000000000000000e+00 5.5999999999999996e+00 0.0000000000000000e+00
ITEM: ATOMS x y z
0.68125 0.68125 0.68125
3.40625 3.40625 0.68125
3.40625 0.68125 3.40625
0.68125 3.40625 3.40625
4.76875 2.04375 2.04375
2.04375 4.76875 2.04375
2.04375 2.04375 4.76875
4.76875 4.76875 4.76875
ITEM: TIMESTEP
2280
ITEM: NUMBER OF ATOMS
8
ITEM: BOX BOUNDS xy xz yz pp pp pp
0.0000000000000000e+00 5.5999999999999996e+00 0.0000000000000000e+00
0.0000000000000000e+00 5.5999999999999996e+00 0.0000000000000000e+00
0.0000000000000000e+00 5.5999999999999996e+00 0.0000000000000000e+00
ITEM: ATOMS x y z
0.68125 0.68125 0.68125
3.40625 3.40625 0.68125
3.40625 0.68125 3.40625
0.68125 3.40625 3.40625
4.76875 2.04375 2.04375
2.04375 4.76875 2.04375
2.04375 2.04375 4.76875
4.76875 4.76875 4.76875
ITEM: TIMESTEP
2290
ITEM: NUMBER OF ATOMS
8
ITEM: BOX BOUNDS xy xz yz pp pp pp
0.0000000000000000e+00 5.5999999999999996e+00 0.0000000000000000e+00
0.0000000000000000e+00 5.5999999999999996e+00 0.0000000000000000e+00
0.0000000000000000e+00 5.5999999999999996e+00 0.0000000000000000e+00
ITEM: ATOMS x y z
0.68125 0.68125 0.68125
3.40625 3.40625 0.68125
3.40625 0.68125 3.40625
0.68125 3.40625 3.40625
4.76875 2.04375 2.04375
2.04375 4.76875 2.04375
2.04375 2.04375 4.76875
4.76875 4.76875 4.76875
ITEM: TIMESTEP
2300
ITEM: NUMBER OF ATOMS
8
ITEM: BOX BOUNDS xy xz yz pp pp pp
0.0000000000000000e+00 5.5999999999999996e+00 0.0000000000000000e+00
0.0000000000000000e+00 5.5999999999999996e+00 0.0000000000000000e+00
0.0000000000000000e+00 5.5999999999999996e+00 0.0000000000000000e+00
ITEM: ATOMS x y z
0.68125 0.68125 0.68125
3.40625 3.40625 0.68125
3.40625 0.68125 3.40625
0.68125 3.40625 3.40625
4.76875 2.04375 2.04375
2.04375 4.76875 2.04375
2.04375 2.04375 4.76875
4.76875 4.76875 4.76875
ITEM: TIMESTEP
2310
ITEM: NUMBER OF ATOMS
8
ITEM: BOX BOUNDS xy xz yz pp pp pp
0.0000000000000000e+00 5.5999999999999996e+00 0.0000000000000000e+00
0.0000000000000000e+00 5.5999999999999996e+00 0.0000000000000000e+00
0.0000000000000000e+00 5.5999999999999996e+00 0.0000000000000000e+00
ITEM: ATOMS x y z
0.68125 0.68125 0.68125
3.40625 3.40625 0.68125
3.40625 0.68125 3.40625
0.68125 3.40625 3.40625
4.76875 2.04375 2.04375
2.04375 4.76875 2.04375
2.04375 2.04375 4.76875
4.76875 4.76875 4.76875
ITEM: TIMESTEP
2320
ITEM: NUMBER OF ATOMS
8
ITEM: BOX BOUNDS xy xz yz pp pp pp
0.0000000000000000e+00 5.5999999999999996e+00 0.0000000000000000e+00
0.0000000000000000e+00 5.5999999999999996e+00 0.0000000000000000e+00
0.0000000000000000e+00 5.5999999999999996e+00 0.0000000000000000e+00
ITEM: ATOMS x y z
0.68125 0.68125 0.68125
3.40625 3.40625 0.68125
3.40625 0.68125 3.40625
0.68125 3.40625 3.40625
4.76875 2.04375 2.04375
2.04375 4.76875 2.04375
2.04375 2.04375 4.76875
4.76875 4.76875 4.76875
ITEM: TIMESTEP
2330
ITEM: NUMBER OF ATOMS
8
ITEM: BOX BOUNDS xy xz yz pp pp pp
0.0000000000000000e+00 5.5999999999999996e+00 0.0000000000000000e+00
0.0000000000000000e+00 5.5999999999999996e+00 0.0000000000000000e+00
0.0000000000000000e+00 5.5999999999999996e+00 0.0000000000000000e+00
ITEM: ATOMS x y z
0.68125 0.68125 0.68125
3.40625 3.40625 0.68125
3.40625 0.68125 3.40625
0.68125 3.40625 3.40625
4.76875 2.04375 2.04375
2.04375 4.76875 2.04375
2.04375 2.04375 4.76875
4.76875 4.76875 4.76875
ITEM: TIMESTEP
2340
ITEM: NUMBER OF ATOMS
8
ITEM: BOX BOUNDS xy xz yz pp pp pp
0.0000000000000000e+00 5.5999999999999996e+00 0.0000000000000000e+00
0.0000000000000000e+00 5.5999999999999996e+00 0.0000000000000000e+00
0.0000000000000000e+00 5.5999999999999996e+00 0.0000000000000000e+00
ITEM: ATOMS x y z
0.68125 0.68125 0.68125
3.40625 3.40625 0.68125
3.40625 0.68125 3.40625
0.68125 3.40625 3.40625
4.76875 2.04375 2.04375
2.04375 4.76875 2.04375
2.04375 2.04375 4.76875
4.76875 4.76875 4.76875
ITEM: TIMESTEP
2350
ITEM: NUMBER OF ATOMS
8
ITEM: BOX BOUNDS xy xz yz pp pp pp
0.0000000000000000e+00 5.5999999999999996e+00 0.0000000000000000e+00
0.0000000000000000e+00 5.5999999999999996e+00 0.0000000000000000e+00
0.0000000000000000e+00 5.5999999999999996e+00 0.0000000000000000e+00
ITEM: ATOMS x y z
0.68125 0.68125 0.68125
3.40625 3.40625 0.68125
3.40625 0.68125 3.40625
0.68125 3.40625 3.40625
4.76875 2.04375 2.04375
2.04375 4.76875 2.04375
2.04375 2.04375 4.76875
4.76875 4.76875 4.76875
ITEM: TIMESTEP
2360
ITEM: NUMBER OF ATOMS
8
ITEM: BOX BOUNDS xy xz yz pp pp pp
0.0000000000000000e+00 5.5999999999999996e+00 0.0000000000000000e+00
0.0000000000000000e+00 5.5999999999999996e+00 0.0000000000000000e+00
0.0000000000000000e+00 5.5999999999999996e+00 0.0000000000000000e+00
ITEM: ATOMS x y z
0.68125 0.68125 0.68125
3.40625 3.40625 0.68125
3.40625 0.68125 3.40625
0.68125 3.40625 3.40625
4.76875 2.04375 2.04375
2.04375 4.76875 2.04375
2.04375 2.04375 4.76875
4.76875 4.76875 4.76875
ITEM: TIMESTEP
2370
ITEM: NUMBER OF ATOMS
8
ITEM: BOX BOUNDS xy xz yz pp pp pp
0.0000000000000000e+00 5.5999999999999996e+00 0.0000000000000000e+00
0.0000000000000000e+00 5.5999999999999996e+00 0.0000000000000000e+00
0.0000000000000000e+00 5.5999999999999996e+00 0.0000000000000000e+00
ITEM: ATOMS x y z
0.68125 0.68125 0.68125
3.40625 3.40625 0.68125
3.40625 0.68125 3.40625
0.68125 3.40625 3.40625
4.76875 2.04375 2.04375
2.04375 4.76875 2.04375
2.04375 2.04375 4.76875
4.76875 4.76875 4.76875
ITEM: TIMESTEP
2380
ITEM: NUMBER OF ATOMS
8
ITEM: BOX BOUNDS xy xz yz pp pp pp
0.0000000000000000e+00 5.5999999999999996e+00 0.0000000000000000e+00
0.0000000000000000e+00 5.5999999999999996e+00 0.0000000000000000e+00
0.0000000000000000e+00 5.5999999999999996e+00 0.0000000000000000e+00
ITEM: ATOMS x y z
0.68125 0.68125 0.68125
3.40625 3.40625 0.68125
3.40625 0.68125 3.40625
0.68125 3.40625 3.40625
4.76875 2.04375 2.04375
2.04375 4.76875 2.04375
2.04375 2.04375 4.76875
4.76875 4.76875 4.76875
ITEM: TIMESTEP
2390
ITEM: NUMBER OF ATOMS
8
ITEM: BOX BOUNDS xy xz yz pp pp pp
0.0000000000000000e+00 5.5999999999999996e+00 0.0000000000000000e+00
0.0000000000000000e+00 5.5999999999999996e+00 0.0000000000000000e+00
0.0000000000000000e+00 5.5999999999999996e+00 0.0000000000000000e+00
ITEM: ATOMS x y z
0.68125 0.68125 0.68125
3.40625 3.40625 0.68125
3.40625 0.68125 3.40625
0.68125 3.40625 3.40625
4.76875 2.04375 2.04375
2.04375 4.76875 2.04375
2.04375 2.04375 4.76875
4.76875 4.76875 4.76875
ITEM: TIMESTEP
2400
ITEM: NUMBER OF ATOMS
8
ITEM: BOX BOUNDS xy xz yz pp pp pp
0.0000000000000000e+00 5.5999999999999996e+00 0.0000000000000000e+00
0.0000000000000000e+00 5.5999999999999996e+00 0.0000000000000000e+00
0.0000000000000000e+00 5.5999999999999996e+00 0.0000000000000000e+00
ITEM: ATOMS x y z
0.68125 0.68125 0.68125
3.40625 3.40625 0.68125
3.40625 0.68125 3.40625
0.68125 3.40625 3.40625
4.76875 2.04375 2.04375
2.04375 4.76875 2.04375
2.04375 2.04375 4.76875
4.76875 4.76875 4.76875
ITEM: TIMESTEP
2410
ITEM: NUMBER OF ATOMS
8
ITEM: BOX BOUNDS xy xz yz pp pp pp
0.0000000000000000e+00 5.5999999999999996e+00 0.0000000000000000e+00
0.0000000000000000e+00 5.5999999999999996e+00 0.0000000000000000e+00
0.0000000000000000e+00 5.5999999999999996e+00 0.0000000000000000e+00
ITEM: ATOMS x y z
0.68125 0.68125 0.68125
3.40625 3.40625 0.68125
3.40625 0.68125 3.40625
0.68125 3.40625 3.40625
4.76875 2.04375 2.04375
2.04375 4.76875 2.04375
2.04375 2.04375 4.76875
4.76875 4.76875 4.76875
ITEM: TIMESTEP
2420
ITEM: NUMBER OF ATOMS
8
ITEM: BOX BOUNDS xy xz yz pp pp pp
0.0000000000000000e+00 5.5999999999999996e+00 0.0000000000000000e+00
0.0000000000000000e+00 5.5999999999999996e+00 0.0000000000000000e+00
0.0000000000000000e+00 5.5999999999999996e+00 0.0000000000000000e+00
ITEM: ATOMS x y z
0.68125 0.68125 0.68125
3.40625 3.40625 0.68125
3.40625 0.68125 3.40625
0.68125 3.40625 3.40625
4.76875 2.04375 2.04375
2.04375 4.76875 2.04375
2.04375 2.04375 4.76875
4.76875 4.76875 4.76875
ITEM: TIMESTEP
2430
ITEM: NUMBER OF ATOMS
8
ITEM: BOX BOUNDS xy xz yz pp pp pp
0.0000000000000000e+00 5.5999999999999996e+00 0.0000000000000000e+00
0.0000000000000000e+00 5.5999999999999996e+00 0.0000000000000000e+00
0.0000000000000000e+00 5.5999999999999996e+00 0.0000000000000000e+00
ITEM: ATOMS x y z
0.68125 0.68125 0.68125
3.40625 3.40625 0.68125
3.40625 0.68125 3.40625
0.68125 3.40625 3.40625
4.76875 2.04375 2.04375
2.04375 4.76875 2.04375
2.04375 2.04375 4.76875
4.76875 4.76875 4.76875
ITEM: TIMESTEP
2440
ITEM: NUMBER OF ATOMS
8
ITEM: BOX BOUNDS xy xz yz pp pp pp
0.0000000000000000e+00 5.5999999999999996e+00 0.0000000000000000e+00
0.0000000000000000e+00 5.5999999999999996e+00 0.0000000000000000e+00
0.0000000000000000e+00 5.5999999999999996e+00 0.0000000000000000e+00
ITEM: ATOMS x y z
0.68125 0.68125 0.68125
3.40625 3.40625 0.68125
3.40625 0.68125 3.40625
0.68125 3.40625 3.40625
4.76875 2.04375 2.04375
2.04375 4.76875 2.04375
2.04375 2.04375 4.76875
4.76875 4.76875 4.76875
ITEM: TIMESTEP
2450
ITEM: NUMBER OF ATOMS
8
ITEM: BOX BOUNDS xy xz yz pp pp pp
0.0000000000000000e+00 5.5999999999999996e+00 0.0000000000000000e+00
0.0000000000000000e+00 5.5999999999999996e+00 0.0000000000000000e+00
0.0000000000000000e+00 5.5999999999999996e+00 0.0000000000000000e+00
ITEM: ATOMS x y z
0.68125 0.68125 0.68125
3.40625 3.40625 0.68125
3.40625 0.68125 3.40625
0.68125 3.40625 3.40625
4.76875 2.04375 2.04375
2.04375 4.76875 2.04375
2.04375 2.04375 4.76875
4.76875 4.76875 4.76875
ITEM: TIMESTEP
2460
ITEM: NUMBER OF ATOMS
8
ITEM: BOX BOUNDS xy xz yz pp pp pp
0.0000000000000000e+00 5.5999999999999996e+00 0.0000000000000000e+00
0.0000000000000000e+00 5.5999999999999996e+00 0.0000000000000000e+00
0.0000000000000000e+00 5.5999999999999996e+00 0.0000000000000000e+00
ITEM: ATOMS x y z
0.68125 0.68125 0.68125
3.40625 3.40625 0.68125
3.40625 0.68125 3.40625
0.68125 3.40625 3.40625
4.76875 2.04375 2.04375
2.04375 4.76875 2.04375
2.04375 2.04375 4.76875
4.76875 4.76875 4.76875
ITEM: TIMESTEP
2470
ITEM: NUMBER OF ATOMS
8
ITEM: BOX BOUNDS xy xz yz pp pp pp
0.0000000000000000e+00 5.5999999999999996e+00 0.0000000000000000e+00
0.0000000000000000e+00 5.5999999999999996e+00 0.0000000000000000e+00
0.0000000000000000e+00 5.5999999999999996e+00 0.0000000000000000e+00
ITEM: ATOMS x y z
0.68125 0.68125 0.68125
3.40625 3.40625 0.68125
3.40625 0.68125 3.40625
0.68125 3.40625 3.40625
4.76875 2.04375 2.04375
2.04375 4.76875 2.04375
2.04375 2.04375 4.76875
4.76875 4.76875 4.76875
ITEM: TIMESTEP
2480
ITEM: NUMBER OF ATOMS
8
ITEM: BOX BOUNDS xy xz yz pp pp pp
0.0000000000000000e+00 5.5999999999999996e+00 0.0000000000000000e+00
0.0000000000000000e+00 5.5999999999999996e+00 0.0000000000000000e+00
0.0000000000000000e+00 5.5999999999999996e+00 0.0000000000000000e+00
ITEM: ATOMS x y z
0.68125 0.68125 0.68125
3.40625 3.40625 0.68125
3.40625 0.68125 3.40625
0.68125 3.40625 3.40625
4.76875 2.04375 2.04375
2.04375 4.76875 2.04375
2.04375 2.04375 4.76875
4.76875 4.76875 4.76875
ITEM: TIMESTEP
2490
ITEM: NUMBER OF ATOMS
8
ITEM: BOX BOUNDS xy xz yz pp pp pp
0.0000000000000000e+00 5.5999999999999996e+00 0.0000000000000000e+00
0.0000000000000000e+00 5.5999999999999996e+00 0.0000000000000000e+00
0.0000000000000000e+00 5.5999999999999996e+00 0.0000000000000000e+00
ITEM: ATOMS x y z
0.68125 0.68125 0.68125
3.40625 3.40625 0.68125
3.40625 0.68125 3.40625
0.68125 3.40625 3.40625
4.76875 2.04375 2.04375
2.04375 4.76875 2.04375
2.04375 2.04375 4.76875
4.76875 4.76875 4.76875
ITEM: TIMESTEP
2500
ITEM: NUMBER OF ATOMS
8
ITEM: BOX BOUNDS xy xz yz pp pp pp
0.0000000000000000e+00 5.5999999999999996e+00 0.0000000000000000e+00
0.0000000000000000e+00 5.5999999999999996e+00 0.0000000000000000e+00
0.0000000000000000e+00 5.5999999999999996e+00 0.0000000000000000e+00
ITEM: ATOMS x y z
0.68125 0.68125 0.68125
3.40625 3.40625 0.68125
3.40625 0.68125 3.40625
0.68125 3.40625 3.40625
4.76875 2.04375 2.04375
2.04375 4.76875 2.04375
2.04375 2.04375 4.76875
4.76875 4.76875 4.76875
ITEM: TIMESTEP
2510
ITEM: NUMBER OF ATOMS
8
ITEM: BOX BOUNDS xy xz yz pp pp pp
0.0000000000000000e+00 5.5999999999999996e+00 0.0000000000000000e+00
0.0000000000000000e+00 5.5999999999999996e+00 0.0000000000000000e+00
0.0000000000000000e+00 5.5999999999999996e+00 0.0000000000000000e+00
ITEM: ATOMS x y z
0.68125 0.68125 0.68125
3.40625 3.40625 0.68125
3.40625 0.68125 3.40625
0.68125 3.40625 3.40625
4.76875 2.04375 2.04375
2.04375 4.76875 2.04375
2.04375 2.04375 4.76875
4.76875 4.76875 4.76875
ITEM: TIMESTEP
2520
ITEM: NUMBER OF ATOMS
8
ITEM: BOX BOUNDS xy xz yz pp pp pp
0.0000000000000000e+00 5.5999999999999996e+00 0.0000000000000000e+00
0.0000000000000000e+00 5.5999999999999996e+00 0.0000000000000000e+00
0.0000000000000000e+00 5.5999999999999996e+00 0.0000000000000000e+00
ITEM: ATOMS x y z
0.68125 0.68125 0.68125
3.40625 3.40625 0.68125
3.40625 0.68125 3.40625
0.68125 3.40625 3.40625
4.76875 2.04375 2.04375
2.04375 4.76875 2.04375
2.04375 2.04375 4.76875
4.76875 4.76875 4.76875
ITEM: TIMESTEP
2530
ITEM: NUMBER OF ATOMS
8
ITEM: BOX BOUNDS xy xz yz pp pp pp
0.0000000000000000e+00 5.5999999999999996e+00 0.0000000000000000e+00
0.0000000000000000e+00 5.5999999999999996e+00 0.0000000000000000e+00
0.0000000000000000e+00 5.5999999999999996e+00 0.0000000000000000e+00
ITEM: ATOMS x y z
0.68125 0.68125 0.68125
3.40625 3.40625 0.68125
3.40625 0.68125 3.40625
0.68125 3.40625 3.40625
4.76875 2.04375 2.04375
2.04375 4.76875 2.04375
2.04375 2.04375 4.76875
4.76875 4.76875 4.76875
ITEM: TIMESTEP
2540
ITEM: NUMBER OF ATOMS
8
ITEM: BOX BOUNDS xy xz yz pp pp pp
0.0000000000000000e+00 5.5999999999999996e+00 0.0000000000000000e+00
0.0000000000000000e+00 5.5999999999999996e+00 0.0000000000000000e+00
0.0000000000000000e+00 5.5999999999999996e+00 0.0000000000000000e+00
ITEM: ATOMS x y z
0.68125 0.68125 0.68125
3.40625 3.40625 0.68125
3.40625 0.68125 3.40625
0.68125 3.40625 3.40625
4.76875 2.04375 2.04375
2.04375 4.76875 2.04375
2.04375 2.04375 4.76875
4.76875 4.76875 4.76875
ITEM: TIMESTEP
2550
ITEM: NUMBER OF ATOMS
8
ITEM: BOX BOUNDS xy xz yz pp pp pp
0.0000000000000000e+00 5.5999999999999996e+00 0.0000000000000000e+00
0.0000000000000000e+00 5.5999999999999996e+00 0.0000000000000000e+00
0.0000000000000000e+00 5.5999999999999996e+00 0.0000000000000000e+00
ITEM: ATOMS x y z
0.68125 0.68125 0.68125
3.40625 3.40625 0.68125
3.40625 0.68125 3.40625
0.68125 3.40625 3.40625
4.76875 2.04375 2.04375
2.04375 4.76875 2.04375
2.04375 2.04375 4.76875
4.76875 4.76875 4.76875
ITEM: TIMESTEP
2560
ITEM: NUMBER OF ATOMS
8
ITEM: BOX BOUNDS xy xz yz pp pp pp
0.0000000000000000e+00 5.5999999999999996e+00 0.0000000000000000e+00
0.0000000000000000e+00 5.5999999999999996e+00 0.0000000000000000e+00
0.0000000000000000e+00 5.5999999999999996e+00 0.0000000000000000e+00
ITEM: ATOMS x y z
0.68125 0.68125 0.68125
3.40625 3.40625 0.68125
3.40625 0.68125 3.40625
0.68125 3.40625 3.40625
4.76875 2.04375 2.04375
2.04375 4.76875 2.04375
2.04375 2.04375 4.76875
4.76875 4.76875 4.76875
ITEM: TIMESTEP
2570
ITEM: NUMBER OF ATOMS
8
ITEM: BOX BOUNDS xy xz yz pp pp pp
0.0000000000000000e+00 5.5999999999999996e+00 0.0000000000000000e+00
0.0000000000000000e+00 5.5999999999999996e+00 0.0000000000000000e+00
0.0000000000000000e+00 5.5999999999999996e+00 0.0000000000000000e+00
ITEM: ATOMS x y z
0.68125 0.68125 0.68125
3.40625 3.40625 0.68125
3.40625 0.68125 3.40625
0.68125 3.40625 3.40625
4.76875 2.04375 2.04375
2.04375 4.76875 2.04375
2.04375 2.04375 4.76875
4.76875 4.76875 4.76875
ITEM: TIMESTEP
2580
ITEM: NUMBER OF ATOMS
8
ITEM: BOX BOUNDS xy xz yz pp pp pp
0.0000000000000000e+00 5.5999999999999996e+00 0.0000000000000000e+00
0.0000000000000000e+00 5.5999999999999996e+00 0.0000000000000000e+00
0.0000000000000000e+00 5.5999999999999996e+00 0.0000000000000000e+00
ITEM: ATOMS x y z
0.68125 0.68125 0.68125
3.40625 3.40625 0.68125
3.40625 0.68125 3.40625
0.68125 3.40625 3.40625
4.76875 2.04375 2.04375
2.04375 4.76875 2.04375
2.04375 2.04375 4.76875
4.76875 4.76875 4.76875
ITEM: TIMESTEP
2590
ITEM: NUMBER OF ATOMS
8
ITEM: BOX BOUNDS xy xz yz pp pp pp
0.0000000000000000e+00 5.5999999999999996e+00 0.0000000000000000e+00
0.0000000000000000e+00 5.5999999999999996e+00 0.0000000000000000e+00
0.0000000000000000e+00 5.5999999999999996e+00 0.0000000000000000e+00
ITEM: ATOMS x y z
0.68125 0.68125 0.68125
3.40625 3.40625 0.68125
3.40625 0.68125 3.40625
0.68125 3.40625 3.40625
4.76875 2.04375 2.04375
2.04375 4.76875 2.04375
2.04375 2.04375 4.76875
4.76875 4.76875 4.76875
ITEM: TIMESTEP
2600
ITEM: NUMBER OF ATOMS
8
ITEM: BOX BOUNDS xy xz yz pp pp pp
0.0000000000000000e+00 5.5999999999999996e+00 0.0000000000000000e+00
0.0000000000000000e+00 5.5999999999999996e+00 0.0000000000000000e+00
0.0000000000000000e+00 5.5999999999999996e+00 0.0000000000000000e+00
ITEM: ATOMS x y z
0.68125 0.68125 0.68125
3.40625 3.40625 0.68125
3.40625 0.68125 3.40625
0.68125 3.40625 3.40625
4.76875 2.04375 2.04375
2.04375 4.76875 2.04375
2.04375 2.04375 4.76875
4.76875 4.76875 4.76875
ITEM: TIMESTEP
2610
ITEM: NUMBER OF ATOMS
8
ITEM: BOX BOUNDS xy xz yz pp pp pp
0.0000000000000000e+00 5.5999999999999996e+00 0.0000000000000000e+00
0.0000000000000000e+00 5.5999999999999996e+00 0.0000000000000000e+00
0.0000000000000000e+00 5.5999999999999996e+00 0.0000000000000000e+00
ITEM: ATOMS x y z
0.68125 0.68125 0.68125
3.40625 3.40625 0.68125
3.40625 0.68125 3.40625
0.68125 3.40625 3.40625
4.76875 2.04375 2.04375
2.04375 4.76875 2.04375
2.04375 2.04375 4.76875
4.76875 4.76875 4.76875
ITEM: TIMESTEP
2620
ITEM: NUMBER OF ATOMS
8
ITEM: BOX BOUNDS xy xz yz pp pp pp
0.0000000000000000e+00 5.5999999999999996e+00 0.0000000000000000e+00
0.0000000000000000e+00 5.5999999999999996e+00 0.0000000000000000e+00
0.0000000000000000e+00 5.5999999999999996e+00 0.0000000000000000e+00
ITEM: ATOMS x y z
0.68125 0.68125 0.68125
3.40625 3.40625 0.68125
3.40625 0.68125 3.40625
0.68125 3.40625 3.40625
4.76875 2.04375 2.04375
2.04375 4.76875 2.04375
2.04375 2.04375 4.76875
4.76875 4.76875 4.76875
ITEM: TIMESTEP
2630
ITEM: NUMBER OF ATOMS
8
ITEM: BOX BOUNDS xy xz yz pp pp pp
0.0000000000000000e+00 5.5999999999999996e+00 0.0000000000000000e+00
0.0000000000000000e+00 5.5999999999999996e+00 0.0000000000000000e+00
0.0000000000000000e+00 5.5999999999999996e+00 0.0000000000000000e+00
ITEM: ATOMS x y z
0.68125 0.68125 0.68125
3.40625 3.40625 0.68125
3.40625 0.68125 3.40625
0.68125 3.40625 3.40625
4.76875 2.04375 2.04375
2.04375 4.76875 2.04375
2.04375 2.04375 4.76875
4.76875 4.76875 4.76875
ITEM: TIMESTEP
2640
ITEM: NUMBER OF ATOMS
8
ITEM: BOX BOUNDS xy xz yz pp pp pp
0.0000000000000000e+00 5.5999999999999996e+00 0.0000000000000000e+00
0.0000000000000000e+00 5.5999999999999996e+00 0.0000000000000000e+00
0.0000000000000000e+00 5.5999999999999996e+00 0.0000000000000000e+00
ITEM: ATOMS x y z
0.68125 0.68125 0.68125
3.40625 3.40625 0.68125
3.40625 0.68125 3.40625
0.68125 3.40625 3.40625
4.76875 2.04375 2.04375
2.04375 4.76875 2.04375
2.04375 2.04375 4.76875
4.76875 4.76875 4.76875
ITEM: TIMESTEP
2650
ITEM: NUMBER OF ATOMS
8
ITEM: BOX BOUNDS xy xz yz pp pp pp
0.0000000000000000e+00 5.5999999999999996e+00 0.0000000000000000e+00
0.0000000000000000e+00 5.5999999999999996e+00 0.0000000000000000e+00
0.0000000000000000e+00 5.5999999999999996e+00 0.0000000000000000e+00
ITEM: ATOMS x y z
0.68125 0.68125 0.68125
3.40625 3.40625 0.68125
3.40625 0.68125 3.40625
0.68125 3.40625 3.40625
4.76875 2.04375 2.04375
2.04375 4.76875 2.04375
2.04375 2.04375 4.76875
4.76875 4.76875 4.76875
ITEM: TIMESTEP
2660
ITEM: NUMBER OF ATOMS
8
ITEM: BOX BOUNDS xy xz yz pp pp pp
0.0000000000000000e+00 5.5999999999999996e+00 0.0000000000000000e+00
0.0000000000000000e+00 5.5999999999999996e+00 0.0000000000000000e+00
0.0000000000000000e+00 5.5999999999999996e+00 0.0000000000000000e+00
ITEM: ATOMS x y z
0.68125 0.68125 0.68125
3.40625 3.40625 0.68125
3.40625 0.68125 3.40625
0.68125 3.40625 3.40625
4.76875 2.04375 2.04375
2.04375 4.76875 2.04375
2.04375 2.04375 4.76875
4.76875 4.76875 4.76875
ITEM: TIMESTEP
2670
ITEM: NUMBER OF ATOMS
8
ITEM: BOX BOUNDS xy xz yz pp pp pp
0.0000000000000000e+00 5.5999999999999996e+00 0.0000000000000000e+00
0.0000000000000000e+00 5.5999999999999996e+00 0.0000000000000000e+00
0.0000000000000000e+00 5.5999999999999996e+00 0.0000000000000000e+00
ITEM: ATOMS x y z
0.68125 0.68125 0.68125
3.40625 3.40625 0.68125
3.40625 0.68125 3.40625
0.68125 3.40625 3.40625
4.76875 2.04375 2.04375
2.04375 4.76875 2.04375
2.04375 2.04375 4.76875
4.76875 4.76875 4.76875
ITEM: TIMESTEP
2680
ITEM: NUMBER OF ATOMS
8
ITEM: BOX BOUNDS xy xz yz pp pp pp
0.0000000000000000e+00 5.5999999999999996e+00 0.0000000000000000e+00
0.0000000000000000e+00 5.5999999999999996e+00 0.0000000000000000e+00
0.0000000000000000e+00 5.5999999999999996e+00 0.0000000000000000e+00
ITEM: ATOMS x y z
0.68125 0.68125 0.68125
3.40625 3.40625 0.68125
3.40625 0.68125 3.40625
0.68125 3.40625 3.40625
4.76875 2.04375 2.04375
2.04375 4.76875 2.04375
2.04375 2.04375 4.76875
4.76875 4.76875 4.76875
ITEM: TIMESTEP
2690
ITEM: NUMBER OF ATOMS
8
ITEM: BOX BOUNDS xy xz yz pp pp pp
0.0000000000000000e+00 5.5999999999999996e+00 0.0000000000000000e+00
0.0000000000000000e+00 5.5999999999999996e+00 0.0000000000000000e+00
0.0000000000000000e+00 5.5999999999999996e+00 0.0000000000000000e+00
ITEM: ATOMS x y z
0.68125 0.68125 0.68125
3.40625 3.40625 0.68125
3.40625 0.68125 3.40625
0.68125 3.40625 3.40625
4.76875 2.04375 2.04375
2.04375 4.76875 2.04375
2.04375 2.04375 4.76875
4.76875 4.76875 4.76875
ITEM: TIMESTEP
2700
ITEM: NUMBER OF ATOMS
8
ITEM: BOX BOUNDS xy xz yz pp pp pp
0.0000000000000000e+00 5.5999999999999996e+00 0.0000000000000000e+00
0.0000000000000000e+00 5.5999999999999996e+00 0.0000000000000000e+00
0.0000000000000000e+00 5.5999999999999996e+00 0.0000000000000000e+00
ITEM: ATOMS x y z
0.68125 0.68125 0.68125
3.40625 3.40625 0.68125
3.40625 0.68125 3.40625
0.68125 3.40625 3.40625
4.76875 2.04375 2.04375
2.04375 4.76875 2.04375
2.04375 2.04375 4.76875
4.76875 4.76875 4.76875
ITEM: TIMESTEP
2710
ITEM: NUMBER OF ATOMS
8
ITEM: BOX BOUNDS xy xz yz pp pp pp
0.0000000000000000e+00 5.5999999999999996e+00 0.0000000000000000e+00
0.0000000000000000e+00 5.5999999999999996e+00 0.0000000000000000e+00
0.0000000000000000e+00 5.5999999999999996e+00 0.0000000000000000e+00
ITEM: ATOMS x y z
0.68125 0.68125 0.68125
3.40625 3.40625 0.68125
3.40625 0.68125 3.40625
0.68125 3.40625 3.40625
4.76875 2.04375 2.04375
2.04375 4.76875 2.04375
2.04375 2.04375 4.76875
4.76875 4.76875 4.76875
ITEM: TIMESTEP
2720
ITEM: NUMBER OF ATOMS
8
ITEM: BOX BOUNDS xy xz yz pp pp pp
0.0000000000000000e+00 5.5999999999999996e+00 0.0000000000000000e+00
0.0000000000000000e+00 5.5999999999999996e+00 0.0000000000000000e+00
0.0000000000000000e+00 5.5999999999999996e+00 0.0000000000000000e+00
ITEM: ATOMS x y z
0.68125 0.68125 0.68125
3.40625 3.40625 0.68125
3.40625 0.68125 3.40625
0.68125 3.40625 3.40625
4.76875 2.04375 2.04375
2.04375 4.76875 2.04375
2.04375 2.04375 4.76875
4.76875 4.76875 4.76875
ITEM: TIMESTEP
2730
ITEM: NUMBER OF ATOMS
8
ITEM: BOX BOUNDS xy xz yz pp pp pp
0.0000000000000000e+00 5.5999999999999996e+00 0.0000000000000000e+00
0.0000000000000000e+00 5.5999999999999996e+00 0.0000000000000000e+00
0.0000000000000000e+00 5.5999999999999996e+00 0.0000000000000000e+00
ITEM: ATOMS x y z
0.68125 0.68125 0.68125
3.40625 3.40625 0.68125
3.40625 0.68125 3.40625
0.68125 3.40625 3.40625
4.76875 2.04375 2.04375
2.04375 4.76875 2.04375
2.04375 2.04375 4.76875
4.76875 4.76875 4.76875
ITEM: TIMESTEP
2740
ITEM: NUMBER OF ATOMS
8
ITEM: BOX BOUNDS xy xz yz pp pp pp
0.0000000000000000e+00 5.5999999999999996e+00 0.0000000000000000e+00
0.0000000000000000e+00 5.5999999999999996e+00 0.0000000000000000e+00
0.0000000000000000e+00 5.5999999999999996e+00 0.0000000000000000e+00
ITEM: ATOMS x y z
0.68125 0.68125 0.68125
3.40625 3.40625 0.68125
3.40625 0.68125 3.40625
0.68125 3.40625 3.40625
4.76875 2.04375 2.04375
2.04375 4.76875 2.04375
2.04375 2.04375 4.76875
4.76875 4.76875 4.76875
ITEM: TIMESTEP
2750
ITEM: NUMBER OF ATOMS
8
ITEM: BOX BOUNDS xy xz yz pp pp pp
0.0000000000000000e+00 5.5999999999999996e+00 0.0000000000000000e+00
0.0000000000000000e+00 5.5999999999999996e+00 0.0000000000000000e+00
0.0000000000000000e+00 5.5999999999999996e+00 0.0000000000000000e+00
ITEM: ATOMS x y z
0.68125 0.68125 0.68125
3.40625 3.40625 0.68125
3.40625 0.68125 3.40625
0.68125 3.40625 3.40625
4.76875 2.04375 2.04375
2.04375 4.76875 2.04375
2.04375 2.04375 4.76875
4.76875 4.76875 4.76875
ITEM: TIMESTEP
2760
ITEM: NUMBER OF ATOMS
8
ITEM: BOX BOUNDS xy xz yz pp pp pp
0.0000000000000000e+00 5.5999999999999996e+00 0.0000000000000000e+00
0.0000000000000000e+00 5.5999999999999996e+00 0.0000000000000000e+00
0.0000000000000000e+00 5.5999999999999996e+00 0.0000000000000000e+00
ITEM: ATOMS x y z
0.68125 0.68125 0.68125
3.40625 3.40625 0.68125
3.40625 0.68125 3.40625
0.68125 3.40625 3.40625
4.76875 2.04375 2.04375
2.04375 4.76875 2.04375
2.04375 2.04375 4.76875
4.76875 4.76875 4.76875
ITEM: TIMESTEP
2770
ITEM: NUMBER OF ATOMS
8
ITEM: BOX BOUNDS xy xz yz pp pp pp
0.0000000000000000e+00 5.5999999999999996e+00 0.0000000000000000e+00
0.0000000000000000e+00 5.5999999999999996e+00 0.0000000000000000e+00
0.0000000000000000e+00 5.5999999999999996e+00 0.0000000000000000e+00
ITEM: ATOMS x y z
0.68125 0.68125 0.68125
3.40625 3.40625 0.68125
3.40625 0.68125 3.40625
0.68125 3.40625 3.40625
4.76875 2.04375 2.04375
2.04375 4.76875 2.04375
2.04375 2.04375 4.76875
4.76875 4.76875 4.76875
ITEM: TIMESTEP
2780
ITEM: NUMBER OF ATOMS
8
ITEM: BOX BOUNDS xy xz yz pp pp pp
0.0000000000000000e+00 5.5999999999999996e+00 0.0000000000000000e+00
0.0000000000000000e+00 5.5999999999999996e+00 0.0000000000000000e+00
0.0000000000000000e+00 5.5999999999999996e+00 0.0000000000000000e+00
ITEM: ATOMS x y z
0.68125 0.68125 0.68125
3.40625 3.40625 0.68125
3.40625 0.68125 3.40625
0.68125 3.40625 3.40625
4.76875 2.04375 2.04375
2.04375 4.76875 2.04375
2.04375 2.04375 4.76875
4.76875 4.76875 4.76875
ITEM: TIMESTEP
2790
ITEM: NUMBER OF ATOMS
8
ITEM: BOX BOUNDS xy xz yz pp pp pp
0.0000000000000000e+00 5.5999999999999996e+00 0.0000000000000000e+00
0.0000000000000000e+00 5.5999999999999996e+00 0.0000000000000000e+00
0.0000000000000000e+00 5.5999999999999996e+00 0.0000000000000000e+00
ITEM: ATOMS x y z
0.68125 0.68125 0.68125
3.40625 3.40625 0.68125
3.40625 0.68125 3.40625
0.68125 3.40625 3.40625
4.76875 2.04375 2.04375
2.04375 4.76875 2.04375
2.04375 2.04375 4.76875
4.76875 4.76875 4.76875
ITEM: TIMESTEP
2800
ITEM: NUMBER OF ATOMS
8
ITEM: BOX BOUNDS xy xz yz pp pp pp
0.0000000000000000e+00 5.5999999999999996e+00 0.0000000000000000e+00
0.0000000000000000e+00 5.5999999999999996e+00 0.0000000000000000e+00
0.0000000000000000e+00 5.5999999999999996e+00 0.0000000000000000e+00
ITEM: ATOMS x y z
0.68125 0.68125 0.68125
3.40625 3.40625 0.68125
3.40625 0.68125 3.40625
0.68125 3.40625 3.40625
4.76875 2.04375 2.04375
2.04375 4.76875 2.04375
2.04375 2.04375 4.76875
4.76875 4.76875 4.76875
ITEM: TIMESTEP
2810
ITEM: NUMBER OF ATOMS
8
ITEM: BOX BOUNDS xy xz yz pp pp pp
0.0000000000000000e+00 5.5999999999999996e+00 0.0000000000000000e+00
0.0000000000000000e+00 5.5999999999999996e+00 0.0000000000000000e+00
0.0000000000000000e+00 5.5999999999999996e+00 0.0000000000000000e+00
ITEM: ATOMS x y z
0.68125 0.68125 0.68125
3.40625 3.40625 0.68125
3.40625 0.68125 3.40625
0.68125 3.40625 3.40625
4.76875 2.04375 2.04375
2.04375 4.76875 2.04375
2.04375 2.04375 4.76875
4.76875 4.76875 4.76875
ITEM: TIMESTEP
2820
ITEM: NUMBER OF ATOMS
8
ITEM: BOX BOUNDS xy xz yz pp pp pp
0.0000000000000000e+00 5.5999999999999996e+00 0.0000000000000000e+00
0.0000000000000000e+00 5.5999999999999996e+00 0.0000000000000000e+00
0.0000000000000000e+00 5.5999999999999996e+00 0.0000000000000000e+00
ITEM: ATOMS x y z
0.68125 0.68125 0.68125
3.40625 3.40625 0.68125
3.40625 0.68125 3.40625
0.68125 3.40625 3.40625
4.76875 2.04375 2.04375
2.04375 4.76875 2.04375
2.04375 2.04375 4.76875
4.76875 4.76875 4.76875
ITEM: TIMESTEP
2830
ITEM: NUMBER OF ATOMS
8
ITEM: BOX BOUNDS xy xz yz pp pp pp
0.0000000000000000e+00 5.5999999999999996e+00 0.0000000000000000e+00
0.0000000000000000e+00 5.5999999999999996e+00 0.0000000000000000e+00
0.0000000000000000e+00 5.5999999999999996e+00 0.0000000000000000e+00
ITEM: ATOMS x y z
0.68125 0.68125 0.68125
3.40625 3.40625 0.68125
3.40625 0.68125 3.40625
0.68125 3.40625 3.40625
4.76875 2.04375 2.04375
2.04375 4.76875 2.04375
2.04375 2.04375 4.76875
4.76875 4.76875 4.76875
ITEM: TIMESTEP
2840
ITEM: NUMBER OF ATOMS
8
ITEM: BOX BOUNDS xy xz yz pp pp pp
0.0000000000000000e+00 5.5999999999999996e+00 0.0000000000000000e+00
0.0000000000000000e+00 5.5999999999999996e+00 0.0000000000000000e+00
0.0000000000000000e+00 5.5999999999999996e+00 0.0000000000000000e+00
ITEM: ATOMS x y z
0.68125 0.68125 0.68125
3.40625 3.40625 0.68125
3.40625 0.68125 3.40625
0.68125 3.40625 3.40625
4.76875 2.04375 2.04375
2.04375 4.76875 2.04375
2.04375 2.04375 4.76875
4.76875 4.76875 4.76875
ITEM: TIMESTEP
2850
ITEM: NUMBER OF ATOMS
8
ITEM: BOX BOUNDS xy xz yz pp pp pp
0.0000000000000000e+00 5.5999999999999996e+00 0.0000000000000000e+00
0.0000000000000000e+00 5.5999999999999996e+00 0.0000000000000000e+00
0.0000000000000000e+00 5.5999999999999996e+00 0.0000000000000000e+00
ITEM: ATOMS x y z
0.68125 0.68125 0.68125
3.40625 3.40625 0.68125
3.40625 0.68125 3.40625
0.68125 3.40625 3.40625
4.76875 2.04375 2.04375
2.04375 4.76875 2.04375
2.04375 2.04375 4.76875
4.76875 4.76875 4.76875
ITEM: TIMESTEP
2860
ITEM: NUMBER OF ATOMS
8
ITEM: BOX BOUNDS xy xz yz pp pp pp
0.0000000000000000e+00 5.5999999999999996e+00 0.0000000000000000e+00
0.0000000000000000e+00 5.5999999999999996e+00 0.0000000000000000e+00
0.0000000000000000e+00 5.5999999999999996e+00 0.0000000000000000e+00
ITEM: ATOMS x y z
0.68125 0.68125 0.68125
3.40625 3.40625 0.68125
3.40625 0.68125 3.40625
0.68125 3.40625 3.40625
4.76875 2.04375 2.04375
2.04375 4.76875 2.04375
2.04375 2.04375 4.76875
4.76875 4.76875 4.76875
ITEM: TIMESTEP
2870
ITEM: NUMBER OF ATOMS
8
ITEM: BOX BOUNDS xy xz yz pp pp pp
0.0000000000000000e+00 5.5999999999999996e+00 0.0000000000000000e+00
0.0000000000000000e+00 5.5999999999999996e+00 0.0000000000000000e+00
0.0000000000000000e+00 5.5999999999999996e+00 0.0000000000000000e+00
ITEM: ATOMS x y z
0.68125 0.68125 0.68125
3.40625 3.40625 0.68125
3.40625 0.68125 3.40625
0.68125 3.40625 3.40625
4.76875 2.04375 2.04375
2.04375 4.76875 2.04375
2.04375 2.04375 4.76875
4.76875 4.76875 4.76875
ITEM: TIMESTEP
2880
ITEM: NUMBER OF ATOMS
8
ITEM: BOX BOUNDS xy xz yz pp pp pp
0.0000000000000000e+00 5.5999999999999996e+00 0.0000000000000000e+00
0.0000000000000000e+00 5.5999999999999996e+00 0.0000000000000000e+00
0.0000000000000000e+00 5.5999999999999996e+00 0.0000000000000000e+00
ITEM: ATOMS x y z
0.68125 0.68125 0.68125
3.40625 3.40625 0.68125
3.40625 0.68125 3.40625
0.68125 3.40625 3.40625
4.76875 2.04375 2.04375
2.04375 4.76875 2.04375
2.04375 2.04375 4.76875
4.76875 4.76875 4.76875
ITEM: TIMESTEP
2890
ITEM: NUMBER OF ATOMS
8
ITEM: BOX BOUNDS xy xz yz pp pp pp
0.0000000000000000e+00 5.5999999999999996e+00 0.0000000000000000e+00
0.0000000000000000e+00 5.5999999999999996e+00 0.0000000000000000e+00
0.0000000000000000e+00 5.5999999999999996e+00 0.0000000000000000e+00
ITEM: ATOMS x y z
0.68125 0.68125 0.68125
3.40625 3.40625 0.68125
3.40625 0.68125 3.40625
0.68125 3.40625 3.40625
4.76875 2.04375 2.04375
2.04375 4.76875 2.04375
2.04375 2.04375 4.76875
4.76875 4.76875 4.76875
ITEM: TIMESTEP
2900
ITEM: NUMBER OF ATOMS
8
ITEM: BOX BOUNDS xy xz yz pp pp pp
0.0000000000000000e+00 5.5999999999999996e+00 0.0000000000000000e+00
0.0000000000000000e+00 5.5999999999999996e+00 0.0000000000000000e+00
0.0000000000000000e+00 5.5999999999999996e+00 0.0000000000000000e+00
ITEM: ATOMS x y z
0.68125 0.68125 0.68125
3.40625 3.40625 0.68125
3.40625 0.68125 3.40625
0.68125 3.40625 3.40625
4.76875 2.04375 2.04375
2.04375 4.76875 2.04375
2.04375 2.04375 4.76875
4.76875 4.76875 4.76875
ITEM: TIMESTEP
2910
ITEM: NUMBER OF ATOMS
8
ITEM: BOX BOUNDS xy xz yz pp pp pp
0.0000000000000000e+00 5.5999999999999996e+00 0.0000000000000000e+00
0.0000000000000000e+00 5.5999999999999996e+00 0.0000000000000000e+00
0.0000000000000000e+00 5.5999999999999996e+00 0.0000000000000000e+00
ITEM: ATOMS x y z
0.68125 0.68125 0.68125
3.40625 3.40625 0.68125
3.40625 0.68125 3.40625
0.68125 3.40625 3.40625
4.76875 2.04375 2.04375
2.04375 4.76875 2.04375
2.04375 2.04375 4.76875
4.76875 4.76875 4.76875
ITEM: TIMESTEP
2920
ITEM: NUMBER OF ATOMS
8
ITEM: BOX BOUNDS xy xz yz pp pp pp
0.0000000000000000e+00 5.5999999999999996e+00 0.0000000000000000e+00
0.0000000000000000e+00 5.5999999999999996e+00 0.0000000000000000e+00
0.0000000000000000e+00 5.5999999999999996e+00 0.0000000000000000e+00
ITEM: ATOMS x y z
0.68125 0.68125 0.68125
3.40625 3.40625 0.68125
3.40625 0.68125 3.40625
0.68125 3.40625 3.40625
4.76875 2.04375 2.04375
2.04375 4.76875 2.04375
2.04375 2.04375 4.76875
4.76875 4.76875 4.76875
ITEM: TIMESTEP
2930
ITEM: NUMBER OF ATOMS
8
ITEM: BOX BOUNDS xy xz yz pp pp pp
0.0000000000000000e+00 5.5999999999999996e+00 0.0000000000000000e+00
0.0000000000000000e+00 5.5999999999999996e+00 0.0000000000000000e+00
0.0000000000000000e+00 5.5999999999999996e+00 0.0000000000000000e+00
ITEM: ATOMS x y z
0.68125 0.68125 0.68125
3.40625 3.40625 0.68125
3.40625 0.68125 3.40625
0.68125 3.40625 3.40625
4.76875 2.04375 2.04375
2.04375 4.76875 2.04375
2.04375 2.04375 4.76875
4.76875 4.76875 4.76875
ITEM: TIMESTEP
2940
ITEM: NUMBER OF ATOMS
8
ITEM: BOX BOUNDS xy xz yz pp pp pp
0.0000000000000000e+00 5.5999999999999996e+00 0.0000000000000000e+00
0.0000000000000000e+00 5.5999999999999996e+00 0.0000000000000000e+00
0.0000000000000000e+00 5.5999999999999996e+00 0.0000000000000000e+00
ITEM: ATOMS x y z
0.68125 0.68125 0.68125
3.40625 3.40625 0.68125
3.40625 0.68125 3.40625
0.68125 3.40625 3.40625
4.76875 2.04375 2.04375
2.04375 4.76875 2.04375
2.04375 2.04375 4.76875
4.76875 4.76875 4.76875
ITEM: TIMESTEP
2950
ITEM: NUMBER OF ATOMS
8
ITEM: BOX BOUNDS xy xz yz pp pp pp
0.0000000000000000e+00 5.5999999999999996e+00 0.0000000000000000e+00
0.0000000000000000e+00 5.5999999999999996e+00 0.0000000000000000e+00
0.0000000000000000e+00 5.5999999999999996e+00 0.0000000000000000e+00
ITEM: ATOMS x y z
0.68125 0.68125 0.68125
3.40625 3.40625 0.68125
3.40625 0.68125 3.40625
0.68125 3.40625 3.40625
4.76875 2.04375 2.04375
2.04375 4.76875 2.04375
2.04375 2.04375 4.76875
4.76875 4.76875 4.76875
ITEM: TIMESTEP
2960
ITEM: NUMBER OF ATOMS
8
ITEM: BOX BOUNDS xy xz yz pp pp pp
0.0000000000000000e+00 5.5999999999999996e+00 0.0000000000000000e+00
0.0000000000000000e+00 5.5999999999999996e+00 0.0000000000000000e+00
0.0000000000000000e+00 5.5999999999999996e+00 0.0000000000000000e+00
ITEM: ATOMS x y z
0.68125 0.68125 0.68125
3.40625 3.40625 0.68125
3.40625 0.68125 3.40625
0.68125 3.40625 3.40625
4.76875 2.04375 2.04375
2.04375 4.76875 2.04375
2.04375 2.04375 4.76875
4.76875 4.76875 4.76875
ITEM: TIMESTEP
2970
ITEM: NUMBER OF ATOMS
8
ITEM: BOX BOUNDS xy xz yz pp pp pp
0.0000000000000000e+00 5.5999999999999996e+00 0.0000000000000000e+00
0.0000000000000000e+00 5.5999999999999996e+00 0.0000000000000000e+00
0.0000000000000000e+00 5.5999999999999996e+00 0.0000000000000000e+00
ITEM: ATOMS x y z
0.68125 0.68125 0.68125
3.40625 3.40625 0.68125
3.40625 0.68125 3.40625
0.68125 3.40625 3.40625
4.76875 2.04375 2.04375
2.04375 4.76875 2.04375
2.04375 2.04375 4.76875
4.76875 4.76875 4.76875
ITEM: TIMESTEP
2980
ITEM: NUMBER OF ATOMS
8
ITEM: BOX BOUNDS xy xz yz pp pp pp
0.0000000000000000e+00 5.5999999999999996e+00 0.0000000000000000e+00
0.0000000000000000e+00 5.5999999999999996e+00 0.0000000000000000e+00
0.0000000000000000e+00 5.5999999999999996e+00 0.0000000000000000e+00
ITEM: ATOMS x y z
0.68125 0.68125 0.68125
3.40625 3.40625 0.68125
3.40625 0.68125 3.40625
0.68125 3.40625 3.40625
4.76875 2.04375 2.04375
2.04375 4.76875 2.04375
2.04375 2.04375 4.76875
4.76875 4.76875 4.76875
ITEM: TIMESTEP
2990
ITEM: NUMBER OF ATOMS
8
ITEM: BOX BOUNDS xy xz yz pp pp pp
0.0000000000000000e+00 5.5999999999999996e+00 0.0000000000000000e+00
0.0000000000000000e+00 5.5999999999999996e+00 0.0000000000000000e+00
0.0000000000000000e+00 5.5999999999999996e+00 0.0000000000000000e+00
ITEM: ATOMS x y z
0.68125 0.68125 0.68125
3.40625 3.40625 0.68125
3.40625 0.68125 3.40625
0.68125 3.40625 3.40625
4.76875 2.04375 2.04375
2.04375 4.76875 2.04375
2.04375 2.04375 4.76875
4.76875 4.76875 4.76875
ITEM: TIMESTEP
3000
ITEM: NUMBER OF ATOMS
8
ITEM: BOX BOUNDS xy xz yz pp pp pp
0.0000000000000000e+00 5.5999999999999996e+00 0.0000000000000000e+00
0.0000000000000000e+00 5.5999999999999996e+00 0.0000000000000000e+00
0.0000000000000000e+00 5.5999999999999996e+00 0.0000000000000000e+00
ITEM: ATOMS x y z
0.68125 0.68125 0.68125
3.40625 3.40625 0.68125
3.40625 0.68125 3.40625
0.68125 3.40625 3.40625
4.76875 2.04375 2.04375
2.04375 4.76875 2.04375
2.04375 2.04375 4.76875
4.76875 4.76875 4.76875
ITEM: TIMESTEP
3010
ITEM: NUMBER OF ATOMS
8
ITEM: BOX BOUNDS xy xz yz pp pp pp
0.0000000000000000e+00 5.5999999999999996e+00 0.0000000000000000e+00
0.0000000000000000e+00 5.5999999999999996e+00 0.0000000000000000e+00
0.0000000000000000e+00 5.5999999999999996e+00 0.0000000000000000e+00
ITEM: ATOMS x y z
0.68125 0.68125 0.68125
3.40625 3.40625 0.68125
3.40625 0.68125 3.40625
0.68125 3.40625 3.40625
4.76875 2.04375 2.04375
2.04375 4.76875 2.04375
2.04375 2.04375 4.76875
4.76875 4.76875 4.76875
ITEM: TIMESTEP
3020
ITEM: NUMBER OF ATOMS
8
ITEM: BOX BOUNDS xy xz yz pp pp pp
0.0000000000000000e+00 5.5999999999999996e+00 0.0000000000000000e+00
0.0000000000000000e+00 5.5999999999999996e+00 0.0000000000000000e+00
0.0000000000000000e+00 5.5999999999999996e+00 0.0000000000000000e+00
ITEM: ATOMS x y z
0.68125 0.68125 0.68125
3.40625 3.40625 0.68125
3.40625 0.68125 3.40625
0.68125 3.40625 3.40625
4.76875 2.04375 2.04375
2.04375 4.76875 2.04375
2.04375 2.04375 4.76875
4.76875 4.76875 4.76875
ITEM: TIMESTEP
3030
ITEM: NUMBER OF ATOMS
8
ITEM: BOX BOUNDS xy xz yz pp pp pp
0.0000000000000000e+00 5.5999999999999996e+00 0.0000000000000000e+00
0.0000000000000000e+00 5.5999999999999996e+00 0.0000000000000000e+00
0.0000000000000000e+00 5.5999999999999996e+00 0.0000000000000000e+00
ITEM: ATOMS x y z
0.68125 0.68125 0.68125
3.40625 3.40625 0.68125
3.40625 0.68125 3.40625
0.68125 3.40625 3.40625
4.76875 2.04375 2.04375
2.04375 4.76875 2.04375
2.04375 2.04375 4.76875
4.76875 4.76875 4.76875
ITEM: TIMESTEP
3040
ITEM: NUMBER OF ATOMS
8
ITEM: BOX BOUNDS xy xz yz pp pp pp
0.0000000000000000e+00 5.5999999999999996e+00 0.0000000000000000e+00
0.0000000000000000e+00 5.5999999999999996e+00 0.0000000000000000e+00
0.0000000000000000e+00 5.5999999999999996e+00 0.0000000000000000e+00
ITEM: ATOMS x y z
0.68125 0.68125 0.68125
3.40625 3.40625 0.68125
3.40625 0.68125 3.40625
0.68125 3.40625 3.40625
4.76875 2.04375 2.04375
2.04375 4.76875 2.04375
2.04375 2.04375 4.76875
4.76875 4.76875 4.76875
ITEM: TIMESTEP
3050
ITEM: NUMBER OF ATOMS
8
ITEM: BOX BOUNDS xy xz yz pp pp pp
0.0000000000000000e+00 5.5999999999999996e+00 0.0000000000000000e+00
0.0000000000000000e+00 5.5999999999999996e+00 0.0000000000000000e+00
0.0000000000000000e+00 5.5999999999999996e+00 0.0000000000000000e+00
ITEM: ATOMS x y z
0.68125 0.68125 0.68125
3.40625 3.40625 0.68125
3.40625 0.68125 3.40625
0.68125 3.40625 3.40625
4.76875 2.04375 2.04375
2.04375 4.76875 2.04375
2.04375 2.04375 4.76875
4.76875 4.76875 4.76875
ITEM: TIMESTEP
3060
ITEM: NUMBER OF ATOMS
8
ITEM: BOX BOUNDS xy xz yz pp pp pp
0.0000000000000000e+00 5.5999999999999996e+00 0.0000000000000000e+00
0.0000000000000000e+00 5.5999999999999996e+00 0.0000000000000000e+00
0.0000000000000000e+00 5.5999999999999996e+00 0.0000000000000000e+00
ITEM: ATOMS x y z
0.68125 0.68125 0.68125
3.40625 3.40625 0.68125
3.40625 0.68125 3.40625
0.68125 3.40625 3.40625
4.76875 2.04375 2.04375
2.04375 4.76875 2.04375
2.04375 2.04375 4.76875
4.76875 4.76875 4.76875
ITEM: TIMESTEP
3070
ITEM: NUMBER OF ATOMS
8
ITEM: BOX BOUNDS xy xz yz pp pp pp
0.0000000000000000e+00 5.5999999999999996e+00 0.0000000000000000e+00
0.0000000000000000e+00 5.5999999999999996e+00 0.0000000000000000e+00
0.0000000000000000e+00 5.5999999999999996e+00 0.0000000000000000e+00
ITEM: ATOMS x y z
0.68125 0.68125 0.68125
3.40625 3.40625 0.68125
3.40625 0.68125 3.40625
0.68125 3.40625 3.40625
4.76875 2.04375 2.04375
2.04375 4.76875 2.04375
2.04375 2.04375 4.76875
4.76875 4.76875 4.76875
ITEM: TIMESTEP
3080
ITEM: NUMBER OF ATOMS
8
ITEM: BOX BOUNDS xy xz yz pp pp pp
0.0000000000000000e+00 5.5999999999999996e+00 0.0000000000000000e+00
0.0000000000000000e+00 5.5999999999999996e+00 0.0000000000000000e+00
0.0000000000000000e+00 5.5999999999999996e+00 0.0000000000000000e+00
ITEM: ATOMS x y z
0.68125 0.68125 0.68125
3.40625 3.40625 0.68125
3.40625 0.68125 3.40625
0.68125 3.40625 3.40625
4.76875 2.04375 2.04375
2.04375 4.76875 2.04375
2.04375 2.04375 4.76875
4.76875 4.76875 4.76875
ITEM: TIMESTEP
3090
ITEM: NUMBER OF ATOMS
8
ITEM: BOX BOUNDS xy xz yz pp pp pp
0.0000000000000000e+00 5.5999999999999996e+00 0.0000000000000000e+00
0.0000000000000000e+00 5.5999999999999996e+00 0.0000000000000000e+00
0.0000000000000000e+00 5.5999999999999996e+00 0.0000000000000000e+00
ITEM: ATOMS x y z
0.68125 0.68125 0.68125
3.40625 3.40625 0.68125
3.40625 0.68125 3.40625
0.68125 3.40625 3.40625
4.76875 2.04375 2.04375
2.04375 4.76875 2.04375
2.04375 2.04375 4.76875
4.76875 4.76875 4.76875
ITEM: TIMESTEP
3100
ITEM: NUMBER OF ATOMS
8
ITEM: BOX BOUNDS xy xz yz pp pp pp
0.0000000000000000e+00 5.5999999999999996e+00 0.0000000000000000e+00
0.0000000000000000e+00 5.5999999999999996e+00 0.0000000000000000e+00
0.0000000000000000e+00 5.5999999999999996e+00 0.0000000000000000e+00
ITEM: ATOMS x y z
0.68125 0.68125 0.68125
3.40625 3.40625 0.68125
3.40625 0.68125 3.40625
0.68125 3.40625 3.40625
4.76875 2.04375 2.04375
2.04375 4.76875 2.04375
2.04375 2.04375 4.76875
4.76875 4.76875 4.76875
ITEM: TIMESTEP
3110
ITEM: NUMBER OF ATOMS
8
ITEM: BOX BOUNDS xy xz yz pp pp pp
0.0000000000000000e+00 5.5999999999999996e+00 0.0000000000000000e+00
0.0000000000000000e+00 5.5999999999999996e+00 0.0000000000000000e+00
0.0000000000000000e+00 5.5999999999999996e+00 0.0000000000000000e+00
ITEM: ATOMS x y z
0.68125 0.68125 0.68125
3.40625 3.40625 0.68125
3.40625 0.68125 3.40625
0.68125 3.40625 3.40625
4.76875 2.04375 2.04375
2.04375 4.76875 2.04375
2.04375 2.04375 4.76875
4.76875 4.76875 4.76875
ITEM: TIMESTEP
3120
ITEM: NUMBER OF ATOMS
8
ITEM: BOX BOUNDS xy xz yz pp pp pp
0.0000000000000000e+00 5.5999999999999996e+00 0.0000000000000000e+00
0.0000000000000000e+00 5.5999999999999996e+00 0.0000000000000000e+00
0.0000000000000000e+00 5.5999999999999996e+00 0.0000000000000000e+00
ITEM: ATOMS x y z
0.68125 0.68125 0.68125
3.40625 3.40625 0.68125
3.40625 0.68125 3.40625
0.68125 3.40625 3.40625
4.76875 2.04375 2.04375
2.04375 4.76875 2.04375
2.04375 2.04375 4.76875
4.76875 4.76875 4.76875
ITEM: TIMESTEP
3130
ITEM: NUMBER OF ATOMS
8
ITEM: BOX BOUNDS xy xz yz pp pp pp
0.0000000000000000e+00 5.5999999999999996e+00 0.0000000000000000e+00
0.0000000000000000e+00 5.5999999999999996e+00 0.0000000000000000e+00
0.0000000000000000e+00 5.5999999999999996e+00 0.0000000000000000e+00
ITEM: ATOMS x y z
0.68125 0.68125 0.68125
3.40625 3.40625 0.68125
3.40625 0.68125 3.40625
0.68125 3.40625 3.40625
4.76875 2.04375 2.04375
2.04375 4.76875 2.04375
2.04375 2.04375 4.76875
4.76875 4.76875 4.76875
ITEM: TIMESTEP
3140
ITEM: NUMBER OF ATOMS
8
ITEM: BOX BOUNDS xy xz yz pp pp pp
0.0000000000000000e+00 5.5999999999999996e+00 0.0000000000000000e+00
0.0000000000000000e+00 5.5999999999999996e+00 0.0000000000000000e+00
0.0000000000000000e+00 5.5999999999999996e+00 0.0000000000000000e+00
ITEM: ATOMS x y z
0.68125 0.68125 0.68125
3.40625 3.40625 0.68125
3.40625 0.68125 3.40625
0.68125 3.40625 3.40625
4.76875 2.04375 2.04375
2.04375 4.76875 2.04375
2.04375 2.04375 4.76875
4.76875 4.76875 4.76875
ITEM: TIMESTEP
3150
ITEM: NUMBER OF ATOMS
8
ITEM: BOX BOUNDS xy xz yz pp pp pp
0.0000000000000000e+00 5.5999999999999996e+00 0.0000000000000000e+00
0.0000000000000000e+00 5.5999999999999996e+00 0.0000000000000000e+00
0.0000000000000000e+00 5.5999999999999996e+00 0.0000000000000000e+00
ITEM: ATOMS x y z
0.68125 0.68125 0.68125
3.40625 3.40625 0.68125
3.40625 0.68125 3.40625
0.68125 3.40625 3.40625
4.76875 2.04375 2.04375
2.04375 4.76875 2.04375
2.04375 2.04375 4.76875
4.76875 4.76875 4.76875
ITEM: TIMESTEP
3160
ITEM: NUMBER OF ATOMS
8
ITEM: BOX BOUNDS xy xz yz pp pp pp
0.0000000000000000e+00 5.5999999999999996e+00 0.0000000000000000e+00
0.0000000000000000e+00 5.5999999999999996e+00 0.0000000000000000e+00
0.0000000000000000e+00 5.5999999999999996e+00 0.0000000000000000e+00
ITEM: ATOMS x y z
0.68125 0.68125 0.68125
3.40625 3.40625 0.68125
3.40625 0.68125 3.40625
0.68125 3.40625 3.40625
4.76875 2.04375 2.04375
2.04375 4.76875 2.04375
2.04375 2.04375 4.76875
4.76875 4.76875 4.76875
ITEM: TIMESTEP
3170
ITEM: NUMBER OF ATOMS
8
ITEM: BOX BOUNDS xy xz yz pp pp pp
0.0000000000000000e+00 5.5999999999999996e+00 0.0000000000000000e+00
0.0000000000000000e+00 5.5999999999999996e+00 0.0000000000000000e+00
0.0000000000000000e+00 5.5999999999999996e+00 0.0000000000000000e+00
ITEM: ATOMS x y z
0.68125 0.68125 0.68125
3.40625 3.40625 0.68125
3.40625 0.68125 3.40625
0.68125 3.40625 3.40625
4.76875 2.04375 2.04375
2.04375 4.76875 2.04375
2.04375 2.04375 4.76875
4.76875 4.76875 4.76875
ITEM: TIMESTEP
3180
ITEM: NUMBER OF ATOMS
8
ITEM: BOX BOUNDS xy xz yz pp pp pp
0.0000000000000000e+00 5.5999999999999996e+00 0.0000000000000000e+00
0.0000000000000000e+00 5.5999999999999996e+00 0.0000000000000000e+00
0.0000000000000000e+00 5.5999999999999996e+00 0.0000000000000000e+00
ITEM: ATOMS x y z
0.68125 0.68125 0.68125
3.40625 3.40625 0.68125
3.40625 0.68125 3.40625
0.68125 3.40625 3.40625
4.76875 2.04375 2.04375
2.04375 4.76875 2.04375
2.04375 2.04375 4.76875
4.76875 4.76875 4.76875
ITEM: TIMESTEP
3190
ITEM: NUMBER OF ATOMS
8
ITEM: BOX BOUNDS xy xz yz pp pp pp
0.0000000000000000e+00 5.5999999999999996e+00 0.0000000000000000e+00
0.0000000000000000e+00 5.5999999999999996e+00 0.0000000000000000e+00
0.0000000000000000e+00 5.5999999999999996e+00 0.0000000000000000e+00
ITEM: ATOMS x y z
0.68125 0.68125 0.68125
3.40625 3.40625 0.68125
3.40625 0.68125 3.40625
0.68125 3.40625 3.40625
4.76875 2.04375 2.04375
2.04375 4.76875 2.04375
2.04375 2.04375 4.76875
4.76875 4.76875 4.76875
ITEM: TIMESTEP
3200
ITEM: NUMBER OF ATOMS
8
ITEM: BOX BOUNDS xy xz yz pp pp pp
0.0000000000000000e+00 5.5999999999999996e+00 0.0000000000000000e+00
0.0000000000000000e+00 5.5999999999999996e+00 0.0000000000000000e+00
0.0000000000000000e+00 5.5999999999999996e+00 0.0000000000000000e+00
ITEM: ATOMS x y z
0.68125 0.68125 0.68125
3.40625 3.40625 0.68125
3.40625 0.68125 3.40625
0.68125 3.40625 3.40625
4.76875 2.04375 2.04375
2.04375 4.76875 2.04375
2.04375 2.04375 4.76875
4.76875 4.76875 4.76875
ITEM: TIMESTEP
3210
ITEM: NUMBER OF ATOMS
8
ITEM: BOX BOUNDS xy xz yz pp pp pp
0.0000000000000000e+00 5.5999999999999996e+00 0.0000000000000000e+00
0.0000000000000000e+00 5.5999999999999996e+00 0.0000000000000000e+00
0.0000000000000000e+00 5.5999999999999996e+00 0.0000000000000000e+00
ITEM: ATOMS x y z
0.68125 0.68125 0.68125
3.40625 3.40625 0.68125
3.40625 0.68125 3.40625
0.68125 3.40625 3.40625
4.76875 2.04375 2.04375
2.04375 4.76875 2.04375
2.04375 2.04375 4.76875
4.76875 4.76875 4.76875
ITEM: TIMESTEP
3220
ITEM: NUMBER OF ATOMS
8
ITEM: BOX BOUNDS xy xz yz pp pp pp
0.0000000000000000e+00 5.5999999999999996e+00 0.0000000000000000e+00
0.0000000000000000e+00 5.5999999999999996e+00 0.0000000000000000e+00
0.0000000000000000e+00 5.5999999999999996e+00 0.0000000000000000e+00
ITEM: ATOMS x y z
0.68125 0.68125 0.68125
3.40625 3.40625 0.68125
3.40625 0.68125 3.40625
0.68125 3.40625 3.40625
4.76875 2.04375 2.04375
2.04375 4.76875 2.04375
2.04375 2.04375 4.76875
4.76875 4.76875 4.76875
ITEM: TIMESTEP
3230
ITEM: NUMBER OF ATOMS
8
ITEM: BOX BOUNDS xy xz yz pp pp pp
0.0000000000000000e+00 5.5999999999999996e+00 0.0000000000000000e+00
0.0000000000000000e+00 5.5999999999999996e+00 0.0000000000000000e+00
0.0000000000000000e+00 5.5999999999999996e+00 0.0000000000000000e+00
ITEM: ATOMS x y z
0.68125 0.68125 0.68125
3.40625 3.40625 0.68125
3.40625 0.68125 3.40625
0.68125 3.40625 3.40625
4.76875 2.04375 2.04375
2.04375 4.76875 2.04375
2.04375 2.04375 4.76875
4.76875 4.76875 4.76875
ITEM: TIMESTEP
3240
ITEM: NUMBER OF ATOMS
8
ITEM: BOX BOUNDS xy xz yz pp pp pp
0.0000000000000000e+00 5.5999999999999996e+00 0.0000000000000000e+00
0.0000000000000000e+00 5.5999999999999996e+00 0.0000000000000000e+00
0.0000000000000000e+00 5.5999999999999996e+00 0.0000000000000000e+00
ITEM: ATOMS x y z
0.68125 0.68125 0.68125
3.40625 3.40625 0.68125
3.40625 0.68125 3.40625
0.68125 3.40625 3.40625
4.76875 2.04375 2.04375
2.04375 4.76875 2.04375
2.04375 2.04375 4.76875
4.76875 4.76875 4.76875
ITEM: TIMESTEP
3250
ITEM: NUMBER OF ATOMS
8
ITEM: BOX BOUNDS xy xz yz pp pp pp
0.0000000000000000e+00 5.5999999999999996e+00 0.0000000000000000e+00
0.0000000000000000e+00 5.5999999999999996e+00 0.0000000000000000e+00
0.0000000000000000e+00 5.5999999999999996e+00 0.0000000000000000e+00
ITEM: ATOMS x y z
0.68125 0.68125 0.68125
3.40625 3.40625 0.68125
3.40625 0.68125 3.40625
0.68125 3.40625 3.40625
4.76875 2.04375 2.04375
2.04375 4.76875 2.04375
2.04375 2.04375 4.76875
4.76875 4.76875 4.76875
ITEM: TIMESTEP
3260
ITEM: NUMBER OF ATOMS
8
ITEM: BOX BOUNDS xy xz yz pp pp pp
0.0000000000000000e+00 5.5999999999999996e+00 0.0000000000000000e+00
0.0000000000000000e+00 5.5999999999999996e+00 0.0000000000000000e+00
0.0000000000000000e+00 5.5999999999999996e+00 0.0000000000000000e+00
ITEM: ATOMS x y z
0.68125 0.68125 0.68125
3.40625 3.40625 0.68125
3.40625 0.68125 3.40625
0.68125 3.40625 3.40625
4.76875 2.04375 2.04375
2.04375 4.76875 2.04375
2.04375 2.04375 4.76875
4.76875 4.76875 4.76875
ITEM: TIMESTEP
3270
ITEM: NUMBER OF ATOMS
8
ITEM: BOX BOUNDS xy xz yz pp pp pp
0.0000000000000000e+00 5.5999999999999996e+00 0.0000000000000000e+00
0.0000000000000000e+00 5.5999999999999996e+00 0.0000000000000000e+00
0.0000000000000000e+00 5.5999999999999996e+00 0.0000000000000000e+00
ITEM: ATOMS x y z
0.68125 0.68125 0.68125
3.40625 3.40625 0.68125
3.40625 0.68125 3.40625
0.68125 3.40625 3.40625
4.76875 2.04375 2.04375
2.04375 4.76875 2.04375
2.04375 2.04375 4.76875
4.76875 4.76875 4.76875
ITEM: TIMESTEP
3280
ITEM: NUMBER OF ATOMS
8
ITEM: BOX BOUNDS xy xz yz pp pp pp
0.0000000000000000e+00 5.5999999999999996e+00 0.0000000000000000e+00
0.0000000000000000e+00 5.5999999999999996e+00 0.0000000000000000e+00
0.0000000000000000e+00 5.5999999999999996e+00 0.0000000000000000e+00
ITEM: ATOMS x y z
0.68125 0.68125 0.68125
3.40625 3.40625 0.68125
3.40625 0.68125 3.40625
0.68125 3.40625 3.40625
4.76875 2.04375 2.04375
2.04375 4.76875 2.04375
2.04375 2.04375 4.76875
4.76875 4.76875 4.76875
ITEM: TIMESTEP
3290
ITEM: NUMBER OF ATOMS
8
ITEM: BOX BOUNDS xy xz yz pp pp pp
0.0000000000000000e+00 5.5999999999999996e+00 0.0000000000000000e+00
0.0000000000000000e+00 5.5999999999999996e+00 0.0000000000000000e+00
0.0000000000000000e+00 5.5999999999999996e+00 0.0000000000000000e+00
ITEM: ATOMS x y z
0.68125 0.68125 0.68125
3.40625 3.40625 0.68125
3.40625 0.68125 3.40625
0.68125 3.40625 3.40625
4.76875 2.04375 2.04375
2.04375 4.76875 2.04375
2.04375 2.04375 4.76875
4.76875 4.76875 4.76875
ITEM: TIMESTEP
3300
ITEM: NUMBER OF ATOMS
8
ITEM: BOX BOUNDS xy xz yz pp pp pp
0.0000000000000000e+00 5.5999999999999996e+00 0.0000000000000000e+00
0.0000000000000000e+00 5.5999999999999996e+00 0.0000000000000000e+00
0.0000000000000000e+00 5.5999999999999996e+00 0.0000000000000000e+00
ITEM: ATOMS x y z
0.68125 0.68125 0.68125
3.40625 3.40625 0.68125
3.40625 0.68125 3.40625
0.68125 3.40625 3.40625
4.76875 2.04375 2.04375
2.04375 4.76875 2.04375
2.04375 2.04375 4.76875
4.76875 4.76875 4.76875
ITEM: TIMESTEP
3310
ITEM: NUMBER OF ATOMS
8
ITEM: BOX BOUNDS xy xz yz pp pp pp
0.0000000000000000e+00 5.5999999999999996e+00 0.0000000000000000e+00
0.0000000000000000e+00 5.5999999999999996e+00 0.0000000000000000e+00
0.0000000000000000e+00 5.5999999999999996e+00 0.0000000000000000e+00
ITEM: ATOMS x y z
0.68125 0.68125 0.68125
3.40625 3.40625 0.68125
3.40625 0.68125 3.40625
0.68125 3.40625 3.40625
4.76875 2.04375 2.04375
2.04375 4.76875 2.04375
2.04375 2.04375 4.76875
4.76875 4.76875 4.76875
ITEM: TIMESTEP
3320
ITEM: NUMBER OF ATOMS
8
ITEM: BOX BOUNDS xy xz yz pp pp pp
0.0000000000000000e+00 5.5999999999999996e+00 0.0000000000000000e+00
0.0000000000000000e+00 5.5999999999999996e+00 0.0000000000000000e+00
0.0000000000000000e+00 5.5999999999999996e+00 0.0000000000000000e+00
ITEM: ATOMS x y z
0.68125 0.68125 0.68125
3.40625 3.40625 0.68125
3.40625 0.68125 3.40625
0.68125 3.40625 3.40625
4.76875 2.04375 2.04375
2.04375 4.76875 2.04375
2.04375 2.04375 4.76875
4.76875 4.76875 4.76875
ITEM: TIMESTEP
3330
ITEM: NUMBER OF ATOMS
8
ITEM: BOX BOUNDS xy xz yz pp pp pp
0.0000000000000000e+00 5.5999999999999996e+00 0.0000000000000000e+00
0.0000000000000000e+00 5.5999999999999996e+00 0.0000000000000000e+00
0.0000000000000000e+00 5.5999999999999996e+00 0.0000000000000000e+00
ITEM: ATOMS x y z
0.68125 0.68125 0.68125
3.40625 3.40625 0.68125
3.40625 0.68125 3.40625
0.68125 3.40625 3.40625
4.76875 2.04375 2.04375
2.04375 4.76875 2.04375
2.04375 2.04375 4.76875
4.76875 4.76875 4.76875
ITEM: TIMESTEP
3340
ITEM: NUMBER OF ATOMS
8
ITEM: BOX BOUNDS xy xz yz pp pp pp
0.0000000000000000e+00 5.5999999999999996e+00 0.0000000000000000e+00
0.0000000000000000e+00 5.5999999999999996e+00 0.0000000000000000e+00
0.0000000000000000e+00 5.5999999999999996e+00 0.0000000000000000e+00
ITEM: ATOMS x y z
0.68125 0.68125 0.68125
3.40625 3.40625 0.68125
3.40625 0.68125 3.40625
0.68125 3.40625 3.40625
4.76875 2.04375 2.04375
2.04375 4.76875 2.04375
2.04375 2.04375 4.76875
4.76875 4.76875 4.76875
ITEM: TIMESTEP
3350
ITEM: NUMBER OF ATOMS
8
ITEM: BOX BOUNDS xy xz yz pp pp pp
0.0000000000000000e+00 5.5999999999999996e+00 0.0000000000000000e+00
0.0000000000000000e+00 5.5999999999999996e+00 0.0000000000000000e+00
0.0000000000000000e+00 5.5999999999999996e+00 0.0000000000000000e+00
ITEM: ATOMS x y z
0.68125 0.68125 0.68125
3.40625 3.40625 0.68125
3.40625 0.68125 3.40625
0.68125 3.40625 3.40625
4.76875 2.04375 2.04375
2.04375 4.76875 2.04375
2.04375 2.04375 4.76875
4.76875 4.76875 4.76875
ITEM: TIMESTEP
3360
ITEM: NUMBER OF ATOMS
8
ITEM: BOX BOUNDS xy xz yz pp pp pp
0.0000000000000000e+00 5.5999999999999996e+00 0.0000000000000000e+00
0.0000000000000000e+00 5.5999999999999996e+00 0.0000000000000000e+00
0.0000000000000000e+00 5.5999999999999996e+00 0.0000000000000000e+00
ITEM: ATOMS x y z
0.68125 0.68125 0.68125
3.40625 3.40625 0.68125
3.40625 0.68125 3.40625
0.68125 3.40625 3.40625
4.76875 2.04375 2.04375
2.04375 4.76875 2.04375
2.04375 2.04375 4.76875
4.76875 4.76875 4.76875
ITEM: TIMESTEP
3370
ITEM: NUMBER OF ATOMS
8
ITEM: BOX BOUNDS xy xz yz pp pp pp
0.0000000000000000e+00 5.5999999999999996e+00 0.0000000000000000e+00
0.0000000000000000e+00 5.5999999999999996e+00 0.0000000000000000e+00
0.0000000000000000e+00 5.5999999999999996e+00 0.0000000000000000e+00
ITEM: ATOMS x y z
0.68125 0.68125 0.68125
3.40625 3.40625 0.68125
3.40625 0.68125 3.40625
0.68125 3.40625 3.40625
4.76875 2.04375 2.04375
2.04375 4.76875 2.04375
2.04375 2.04375 4.76875
4.76875 4.76875 4.76875
ITEM: TIMESTEP
3380
ITEM: NUMBER OF ATOMS
8
ITEM: BOX BOUNDS xy xz yz pp pp pp
0.0000000000000000e+00 5.5999999999999996e+00 0.0000000000000000e+00
0.0000000000000000e+00 5.5999999999999996e+00 0.0000000000000000e+00
0.0000000000000000e+00 5.5999999999999996e+00 0.0000000000000000e+00
ITEM: ATOMS x y z
0.68125 0.68125 0.68125
3.40625 3.40625 0.68125
3.40625 0.68125 3.40625
0.68125 3.40625 3.40625
4.76875 2.04375 2.04375
2.04375 4.76875 2.04375
2.04375 2.04375 4.76875
4.76875 4.76875 4.76875
ITEM: TIMESTEP
3390
ITEM: NUMBER OF ATOMS
8
ITEM: BOX BOUNDS xy xz yz pp pp pp
0.0000000000000000e+00 5.5999999999999996e+00 0.0000000000000000e+00
0.0000000000000000e+00 5.5999999999999996e+00 0.0000000000000000e+00
0.0000000000000000e+00 5.5999999999999996e+00 0.0000000000000000e+00
ITEM: ATOMS x y z
0.68125 0.68125 0.68125
3.40625 3.40625 0.68125
3.40625 0.68125 3.40625
0.68125 3.40625 3.40625
4.76875 2.04375 2.04375
2.04375 4.76875 2.04375
2.04375 2.04375 4.76875
4.76875 4.76875 4.76875
ITEM: TIMESTEP
3400
ITEM: NUMBER OF ATOMS
8
ITEM: BOX BOUNDS xy xz yz pp pp pp
0.0000000000000000e+00 5.5999999999999996e+00 0.0000000000000000e+00
0.0000000000000000e+00 5.5999999999999996e+00 0.0000000000000000e+00
0.0000000000000000e+00 5.5999999999999996e+00 0.0000000000000000e+00
ITEM: ATOMS x y z
0.68125 0.68125 0.68125
3.40625 3.40625 0.68125
3.40625 0.68125 3.40625
0.68125 3.40625 3.40625
4.76875 2.04375 2.04375
2.04375 4.76875 2.04375
2.04375 2.04375 4.76875
4.76875 4.76875 4.76875
ITEM: TIMESTEP
3410
ITEM: NUMBER OF ATOMS
8
ITEM: BOX BOUNDS xy xz yz pp pp pp
0.0000000000000000e+00 5.5999999999999996e+00 0.0000000000000000e+00
0.0000000000000000e+00 5.5999999999999996e+00 0.0000000000000000e+00
0.0000000000000000e+00 5.5999999999999996e+00 0.0000000000000000e+00
ITEM: ATOMS x y z
0.68125 0.68125 0.68125
3.40625 3.40625 0.68125
3.40625 0.68125 3.40625
0.68125 3.40625 3.40625
4.76875 2.04375 2.04375
2.04375 4.76875 2.04375
2.04375 2.04375 4.76875
4.76875 4.76875 4.76875
ITEM: TIMESTEP
3420
ITEM: NUMBER OF ATOMS
8
ITEM: BOX BOUNDS xy xz yz pp pp pp
0.0000000000000000e+00 5.5999999999999996e+00 0.0000000000000000e+00
0.0000000000000000e+00 5.5999999999999996e+00 0.0000000000000000e+00
0.0000000000000000e+00 5.5999999999999996e+00 0.0000000000000000e+00
ITEM: ATOMS x y z
0.68125 0.68125 0.68125
3.40625 3.40625 0.68125
3.40625 0.68125 3.40625
0.68125 3.40625 3.40625
4.76875 2.04375 2.04375
2.04375 4.76875 2.04375
2.04375 2.04375 4.76875
4.76875 4.76875 4.76875
ITEM: TIMESTEP
3430
ITEM: NUMBER OF ATOMS
8
ITEM: BOX BOUNDS xy xz yz pp pp pp
0.0000000000000000e+00 5.5999999999999996e+00 0.0000000000000000e+00
0.0000000000000000e+00 5.5999999999999996e+00 0.0000000000000000e+00
0.0000000000000000e+00 5.5999999999999996e+00 0.0000000000000000e+00
ITEM: ATOMS x y z
0.68125 0.68125 0.68125
3.40625 3.40625 0.68125
3.40625 0.68125 3.40625
0.68125 3.40625 3.40625
4.76875 2.04375 2.04375
2.04375 4.76875 2.04375
2.04375 2.04375 4.76875
4.76875 4.76875 4.76875
ITEM: TIMESTEP
3440
ITEM: NUMBER OF ATOMS
8
ITEM: BOX BOUNDS xy xz yz pp pp pp
0.0000000000000000e+00 5.5999999999999996e+00 0.0000000000000000e+00
0.0000000000000000e+00 5.5999999999999996e+00 0.0000000000000000e+00
0.0000000000000000e+00 5.5999999999999996e+00 0.0000000000000000e+00
ITEM: ATOMS x y z
0.68125 0.68125 0.68125
3.40625 3.40625 0.68125
3.40625 0.68125 3.40625
0.68125 3.40625 3.40625
4.76875 2.04375 2.04375
2.04375 4.76875 2.04375
2.04375 2.04375 4.76875
4.76875 4.76875 4.76875
ITEM: TIMESTEP
3450
ITEM: NUMBER OF ATOMS
8
ITEM: BOX BOUNDS xy xz yz pp pp pp
0.0000000000000000e+00 5.5999999999999996e+00 0.0000000000000000e+00
0.0000000000000000e+00 5.5999999999999996e+00 0.0000000000000000e+00
0.0000000000000000e+00 5.5999999999999996e+00 0.0000000000000000e+00
ITEM: ATOMS x y z
0.68125 0.68125 0.68125
3.40625 3.40625 0.68125
3.40625 0.68125 3.40625
0.68125 3.40625 3.40625
4.76875 2.04375 2.04375
2.04375 4.76875 2.04375
2.04375 2.04375 4.76875
4.76875 4.76875 4.76875
ITEM: TIMESTEP
3460
ITEM: NUMBER OF ATOMS
8
ITEM: BOX BOUNDS xy xz yz pp pp pp
0.0000000000000000e+00 5.5999999999999996e+00 0.0000000000000000e+00
0.0000000000000000e+00 5.5999999999999996e+00 0.0000000000000000e+00
0.0000000000000000e+00 5.5999999999999996e+00 0.0000000000000000e+00
ITEM: ATOMS x y z
0.68125 0.68125 0.68125
3.40625 3.40625 0.68125
3.40625 0.68125 3.40625
0.68125 3.40625 3.40625
4.76875 2.04375 2.04375
2.04375 4.76875 2.04375
2.04375 2.04375 4.76875
4.76875 4.76875 4.76875
ITEM: TIMESTEP
3470
ITEM: NUMBER OF ATOMS
8
ITEM: BOX BOUNDS xy xz yz pp pp pp
0.0000000000000000e+00 5.5999999999999996e+00 0.0000000000000000e+00
0.0000000000000000e+00 5.5999999999999996e+00 0.0000000000000000e+00
0.0000000000000000e+00 5.5999999999999996e+00 0.0000000000000000e+00
ITEM: ATOMS x y z
0.68125 0.68125 0.68125
3.40625 3.40625 0.68125
3.40625 0.68125 3.40625
0.68125 3.40625 3.40625
4.76875 2.04375 2.04375
2.04375 4.76875 2.04375
2.04375 2.04375 4.76875
4.76875 4.76875 4.76875
ITEM: TIMESTEP
3480
ITEM: NUMBER OF ATOMS
8
ITEM: BOX BOUNDS xy xz yz pp pp pp
0.0000000000000000e+00 5.5999999999999996e+00 0.0000000000000000e+00
0.0000000000000000e+00 5.5999999999999996e+00 0.0000000000000000e+00
0.0000000000000000e+00 5.5999999999999996e+00 0.0000000000000000e+00
ITEM: ATOMS x y z
0.68125 0.68125 0.68125
3.40625 3.40625 0.68125
3.40625 0.68125 3.40625
0.68125 3.40625 3.40625
4.76875 2.04375 2.04375
2.04375 4.76875 2.04375
2.04375 2.04375 4.76875
4.76875 4.76875 4.76875
ITEM: TIMESTEP
3490
ITEM: NUMBER OF ATOMS
8
ITEM: BOX BOUNDS xy xz yz pp pp pp
0.0000000000000000e+00 5.5999999999999996e+00 0.0000000000000000e+00
0.0000000000000000e+00 5.5999999999999996e+00 0.0000000000000000e+00
0.0000000000000000e+00 5.5999999999999996e+00 0.0000000000000000e+00
ITEM: ATOMS x y z
0.68125 0.68125 0.68125
3.40625 3.40625 0.68125
3.40625 0.68125 3.40625
0.68125 3.40625 3.40625
4.76875 2.04375 2.04375
2.04375 4.76875 2.04375
2.04375 2.04375 4.76875
4.76875 4.76875 4.76875
ITEM: TIMESTEP
3500
ITEM: NUMBER OF ATOMS
8
ITEM: BOX BOUNDS xy xz yz pp pp pp
0.0000000000000000e+00 5.5999999999999996e+00 0.0000000000000000e+00
0.0000000000000000e+00 5.5999999999999996e+00 0.0000000000000000e+00
0.0000000000000000e+00 5.5999999999999996e+00 0.0000000000000000e+00
ITEM: ATOMS x y z
0.68125 0.68125 0.68125
3.40625 3.40625 0.68125
3.40625 0.68125 3.40625
0.68125 3.40625 3.40625
4.76875 2.04375 2.04375
2.04375 4.76875 2.04375
2.04375 2.04375 4.76875
4.76875 4.76875 4.76875
ITEM: TIMESTEP
3510
ITEM: NUMBER OF ATOMS
8
ITEM: BOX BOUNDS xy xz yz pp pp pp
0.0000000000000000e+00 5.5999999999999996e+00 0.0000000000000000e+00
0.0000000000000000e+00 5.5999999999999996e+00 0.0000000000000000e+00
0.0000000000000000e+00 5.5999999999999996e+00 0.0000000000000000e+00
ITEM: ATOMS x y z
0.68125 0.68125 0.68125
3.40625 3.40625 0.68125
3.40625 0.68125 3.40625
0.68125 3.40625 3.40625
4.76875 2.04375 2.04375
2.04375 4.76875 2.04375
2.04375 2.04375 4.76875
4.76875 4.76875 4.76875
ITEM: TIMESTEP
3520
ITEM: NUMBER OF ATOMS
8
ITEM: BOX BOUNDS xy xz yz pp pp pp
0.0000000000000000e+00 5.5999999999999996e+00 0.0000000000000000e+00
0.0000000000000000e+00 5.5999999999999996e+00 0.0000000000000000e+00
0.0000000000000000e+00 5.5999999999999996e+00 0.0000000000000000e+00
ITEM: ATOMS x y z
0.68125 0.68125 0.68125
3.40625 3.40625 0.68125
3.40625 0.68125 3.40625
0.68125 3.40625 3.40625
4.76875 2.04375 2.04375
2.04375 4.76875 2.04375
2.04375 2.04375 4.76875
4.76875 4.76875 4.76875
ITEM: TIMESTEP
3530
ITEM: NUMBER OF ATOMS
8
ITEM: BOX BOUNDS xy xz yz pp pp pp
0.0000000000000000e+00 5.5999999999999996e+00 0.0000000000000000e+00
0.0000000000000000e+00 5.5999999999999996e+00 0.0000000000000000e+00
0.0000000000000000e+00 5.5999999999999996e+00 0.0000000000000000e+00
ITEM: ATOMS x y z
0.68125 0.68125 0.68125
3.40625 3.40625 0.68125
3.40625 0.68125 3.40625
0.68125 3.40625 3.40625
4.76875 2.04375 2.04375
2.04375 4.76875 2.04375
2.04375 2.04375 4.76875
4.76875 4.76875 4.76875
ITEM: TIMESTEP
3540
ITEM: NUMBER OF ATOMS
8
ITEM: BOX BOUNDS xy xz yz pp pp pp
0.0000000000000000e+00 5.5999999999999996e+00 0.0000000000000000e+00
0.0000000000000000e+00 5.5999999999999996e+00 0.0000000000000000e+00
0.0000000000000000e+00 5.5999999999999996e+00 0.0000000000000000e+00
ITEM: ATOMS x y z
0.68125 0.68125 0.68125
3.40625 3.40625 0.68125
3.40625 0.68125 3.40625
0.68125 3.40625 3.40625
4.76875 2.04375 2.04375
2.04375 4.76875 2.04375
2.04375 2.04375 4.76875
4.76875 4.76875 4.76875
ITEM: TIMESTEP
3550
ITEM: NUMBER OF ATOMS
8
ITEM: BOX BOUNDS xy xz yz pp pp pp
0.0000000000000000e+00 5.5999999999999996e+00 0.0000000000000000e+00
0.0000000000000000e+00 5.5999999999999996e+00 0.0000000000000000e+00
0.0000000000000000e+00 5.5999999999999996e+00 0.0000000000000000e+00
ITEM: ATOMS x y z
0.68125 0.68125 0.68125
3.40625 3.40625 0.68125
3.40625 0.68125 3.40625
0.68125 3.40625 3.40625
4.76875 2.04375 2.04375
2.04375 4.76875 2.04375
2.04375 2.04375 4.76875
4.76875 4.76875 4.76875
ITEM: TIMESTEP
3560
ITEM: NUMBER OF ATOMS
8
ITEM: BOX BOUNDS xy xz yz pp pp pp
0.0000000000000000e+00 5.5999999999999996e+00 0.0000000000000000e+00
0.0000000000000000e+00 5.5999999999999996e+00 0.0000000000000000e+00
0.0000000000000000e+00 5.5999999999999996e+00 0.0000000000000000e+00
ITEM: ATOMS x y z
0.68125 0.68125 0.68125
3.40625 3.40625 0.68125
3.40625 0.68125 3.40625
0.68125 3.40625 3.40625
4.76875 2.04375 2.04375
2.04375 4.76875 2.04375
2.04375 2.04375 4.76875
4.76875 4.76875 4.76875
ITEM: TIMESTEP
3570
ITEM: NUMBER OF ATOMS
8
ITEM: BOX BOUNDS xy xz yz pp pp pp
0.0000000000000000e+00 5.5999999999999996e+00 0.0000000000000000e+00
0.0000000000000000e+00 5.5999999999999996e+00 0.0000000000000000e+00
0.0000000000000000e+00 5.5999999999999996e+00 0.0000000000000000e+00
ITEM: ATOMS x y z
0.68125 0.68125 0.68125
3.40625 3.40625 0.68125
3.40625 0.68125 3.40625
0.68125 3.40625 3.40625
4.76875 2.04375 2.04375
2.04375 4.76875 2.04375
2.04375 2.04375 4.76875
4.76875 4.76875 4.76875
ITEM: TIMESTEP
3580
ITEM: NUMBER OF ATOMS
8
ITEM: BOX BOUNDS xy xz yz pp pp pp
0.0000000000000000e+00 5.5999999999999996e+00 0.0000000000000000e+00
0.0000000000000000e+00 5.5999999999999996e+00 0.0000000000000000e+00
0.0000000000000000e+00 5.5999999999999996e+00 0.0000000000000000e+00
ITEM: ATOMS x y z
0.68125 0.68125 0.68125
3.40625 3.40625 0.68125
3.40625 0.68125 3.40625
0.68125 3.40625 3.40625
4.76875 2.04375 2.04375
2.04375 4.76875 2.04375
2.04375 2.04375 4.76875
4.76875 4.76875 4.76875
ITEM: TIMESTEP
3590
ITEM: NUMBER OF ATOMS
8
ITEM: BOX BOUNDS xy xz yz pp pp pp
0.0000000000000000e+00 5.5999999999999996e+00 0.0000000000000000e+00
0.0000000000000000e+00 5.5999999999999996e+00 0.0000000000000000e+00
0.0000000000000000e+00 5.5999999999999996e+00 0.0000000000000000e+00
ITEM: ATOMS x y z
0.68125 0.68125 0.68125
3.40625 3.40625 0.68125
3.40625 0.68125 3.40625
0.68125 3.40625 3.40625
4.76875 2.04375 2.04375
2.04375 4.76875 2.04375
2.04375 2.04375 4.76875
4.76875 4.76875 4.76875
ITEM: TIMESTEP
3600
ITEM: NUMBER OF ATOMS
8
ITEM: BOX BOUNDS xy xz yz pp pp pp
0.0000000000000000e+00 5.5999999999999996e+00 0.0000000000000000e+00
0.0000000000000000e+00 5.5999999999999996e+00 0.0000000000000000e+00
0.0000000000000000e+00 5.5999999999999996e+00 0.0000000000000000e+00
ITEM: ATOMS x y z
0.68125 0.68125 0.68125
3.40625 3.40625 0.68125
3.40625 0.68125 3.40625
0.68125 3.40625 3.40625
4.76875 2.04375 2.04375
2.04375 4.76875 2.04375
2.04375 2.04375 4.76875
4.76875 4.76875 4.76875
ITEM: TIMESTEP
3610
ITEM: NUMBER OF ATOMS
8
ITEM: BOX BOUNDS xy xz yz pp pp pp
0.0000000000000000e+00 5.5999999999999996e+00 0.0000000000000000e+00
0.0000000000000000e+00 5.5999999999999996e+00 0.0000000000000000e+00
0.0000000000000000e+00 5.5999999999999996e+00 0.0000000000000000e+00
ITEM: ATOMS x y z
0.68125 0.68125 0.68125
3.40625 3.40625 0.68125
3.40625 0.68125 3.40625
0.68125 3.40625 3.40625
4.76875 2.04375 2.04375
2.04375 4.76875 2.04375
2.04375 2.04375 4.76875
4.76875 4.76875 4.76875
ITEM: TIMESTEP
3620
ITEM: NUMBER OF ATOMS
8
ITEM: BOX BOUNDS xy xz yz pp pp pp
0.0000000000000000e+00 5.5999999999999996e+00 0.0000000000000000e+00
0.0000000000000000e+00 5.5999999999999996e+00 0.0000000000000000e+00
0.0000000000000000e+00 5.5999999999999996e+00 0.0000000000000000e+00
ITEM: ATOMS x y z
0.68125 0.68125 0.68125
3.40625 3.40625 0.68125
3.40625 0.68125 3.40625
0.68125 3.40625 3.40625
4.76875 2.04375 2.04375
2.04375 4.76875 2.04375
2.04375 2.04375 4.76875
4.76875 4.76875 4.76875
ITEM: TIMESTEP
3630
ITEM: NUMBER OF ATOMS
8
ITEM: BOX BOUNDS xy xz yz pp pp pp
0.0000000000000000e+00 5.5999999999999996e+00 0.0000000000000000e+00
0.0000000000000000e+00 5.5999999999999996e+00 0.0000000000000000e+00
0.0000000000000000e+00 5.5999999999999996e+00 0.0000000000000000e+00
ITEM: ATOMS x y z
0.68125 0.68125 0.68125
3.40625 3.40625 0.68125
3.40625 0.68125 3.40625
0.68125 3.40625 3.40625
4.76875 2.04375 2.04375
2.04375 4.76875 2.04375
2.04375 2.04375 4.76875
4.76875 4.76875 4.76875
ITEM: TIMESTEP
3640
ITEM: NUMBER OF ATOMS
8
ITEM: BOX BOUNDS xy xz yz pp pp pp
0.0000000000000000e+00 5.5999999999999996e+00 0.0000000000000000e+00
0.0000000000000000e+00 5.5999999999999996e+00 0.0000000000000000e+00
0.0000000000000000e+00 5.5999999999999996e+00 0.0000000000000000e+00
ITEM: ATOMS x y z
0.68125 0.68125 0.68125
3.40625 3.40625 0.68125
3.40625 0.68125 3.40625
0.68125 3.40625 3.40625
4.76875 2.04375 2.04375
2.04375 4.76875 2.04375
2.04375 2.04375 4.76875
4.76875 4.76875 4.76875
ITEM: TIMESTEP
3650
ITEM: NUMBER OF ATOMS
8
ITEM: BOX BOUNDS xy xz yz pp pp pp
0.0000000000000000e+00 5.5999999999999996e+00 0.0000000000000000e+00
0.0000000000000000e+00 5.5999999999999996e+00 0.0000000000000000e+00
0.0000000000000000e+00 5.5999999999999996e+00 0.0000000000000000e+00
ITEM: ATOMS x y z
0.68125 0.68125 0.68125
3.40625 3.40625 0.68125
3.40625 0.68125 3.40625
0.68125 3.40625 3.40625
4.76875 2.04375 2.04375
2.04375 4.76875 2.04375
2.04375 2.04375 4.76875
4.76875 4.76875 4.76875
ITEM: TIMESTEP
3660
ITEM: NUMBER OF ATOMS
8
ITEM: BOX BOUNDS xy xz yz pp pp pp
0.0000000000000000e+00 5.5999999999999996e+00 0.0000000000000000e+00
0.0000000000000000e+00 5.5999999999999996e+00 0.0000000000000000e+00
0.0000000000000000e+00 5.5999999999999996e+00 0.0000000000000000e+00
ITEM: ATOMS x y z
0.68125 0.68125 0.68125
3.40625 3.40625 0.68125
3.40625 0.68125 3.40625
0.68125 3.40625 3.40625
4.76875 2.04375 2.04375
2.04375 4.76875 2.04375
2.04375 2.04375 4.76875
4.76875 4.76875 4.76875
ITEM: TIMESTEP
3670
ITEM: NUMBER OF ATOMS
8
ITEM: BOX BOUNDS xy xz yz pp pp pp
0.0000000000000000e+00 5.5999999999999996e+00 0.0000000000000000e+00
0.0000000000000000e+00 5.5999999999999996e+00 0.0000000000000000e+00
0.0000000000000000e+00 5.5999999999999996e+00 0.0000000000000000e+00
ITEM: ATOMS x y z
0.68125 0.68125 0.68125
3.40625 3.40625 0.68125
3.40625 0.68125 3.40625
0.68125 3.40625 3.40625
4.76875 2.04375 2.04375
2.04375 4.76875 2.04375
2.04375 2.04375 4.76875
4.76875 4.76875 4.76875
ITEM: TIMESTEP
3680
ITEM: NUMBER OF ATOMS
8
ITEM: BOX BOUNDS xy xz yz pp pp pp
0.0000000000000000e+00 5.5999999999999996e+00 0.0000000000000000e+00
0.0000000000000000e+00 5.5999999999999996e+00 0.0000000000000000e+00
0.0000000000000000e+00 5.5999999999999996e+00 0.0000000000000000e+00
ITEM: ATOMS x y z
0.68125 0.68125 0.68125
3.40625 3.40625 0.68125
3.40625 0.68125 3.40625
0.68125 3.40625 3.40625
4.76875 2.04375 2.04375
2.04375 4.76875 2.04375
2.04375 2.04375 4.76875
4.76875 4.76875 4.76875
ITEM: TIMESTEP
3690
ITEM: NUMBER OF ATOMS
8
ITEM: BOX BOUNDS xy xz yz pp pp pp
0.0000000000000000e+00 5.5999999999999996e+00 0.0000000000000000e+00
0.0000000000000000e+00 5.5999999999999996e+00 0.0000000000000000e+00
0.0000000000000000e+00 5.5999999999999996e+00 0.0000000000000000e+00
ITEM: ATOMS x y z
0.68125 0.68125 0.68125
3.40625 3.40625 0.68125
3.40625 0.68125 3.40625
0.68125 3.40625 3.40625
4.76875 2.04375 2.04375
2.04375 4.76875 2.04375
2.04375 2.04375 4.76875
4.76875 4.76875 4.76875
ITEM: TIMESTEP
3700
ITEM: NUMBER OF ATOMS
8
ITEM: BOX BOUNDS xy xz yz pp pp pp
0.0000000000000000e+00 5.5999999999999996e+00 0.0000000000000000e+00
0.0000000000000000e+00 5.5999999999999996e+00 0.0000000000000000e+00
0.0000000000000000e+00 5.5999999999999996e+00 0.0000000000000000e+00
ITEM: ATOMS x y z
0.68125 0.68125 0.68125
3.40625 3.40625 0.68125
3.40625 0.68125 3.40625
0.68125 3.40625 3.40625
4.76875 2.04375 2.04375
2.04375 4.76875 2.04375
2.04375 2.04375 4.76875
4.76875 4.76875 4.76875
ITEM: TIMESTEP
3710
ITEM: NUMBER OF ATOMS
8
ITEM: BOX BOUNDS xy xz yz pp pp pp
0.0000000000000000e+00 5.5999999999999996e+00 0.0000000000000000e+00
0.0000000000000000e+00 5.5999999999999996e+00 0.0000000000000000e+00
0.0000000000000000e+00 5.5999999999999996e+00 0.0000000000000000e+00
ITEM: ATOMS x y z
0.68125 0.68125 0.68125
3.40625 3.40625 0.68125
3.40625 0.68125 3.40625
0.68125 3.40625 3.40625
4.76875 2.04375 2.04375
2.04375 4.76875 2.04375
2.04375 2.04375 4.76875
4.76875 4.76875 4.76875
ITEM: TIMESTEP
3720
ITEM: NUMBER OF ATOMS
8
ITEM: BOX BOUNDS xy xz yz pp pp pp
0.0000000000000000e+00 5.5999999999999996e+00 0.0000000000000000e+00
0.0000000000000000e+00 5.5999999999999996e+00 0.0000000000000000e+00
0.0000000000000000e+00 5.5999999999999996e+00 0.0000000000000000e+00
ITEM: ATOMS x y z
0.68125 0.68125 0.68125
3.40625 3.40625 0.68125
3.40625 0.68125 3.40625
0.68125 3.40625 3.40625
4.76875 2.04375 2.04375
2.04375 4.76875 2.04375
2.04375 2.04375 4.76875
4.76875 4.76875 4.76875
ITEM: TIMESTEP
3730
ITEM: NUMBER OF ATOMS
8
ITEM: BOX BOUNDS xy xz yz pp pp pp
0.0000000000000000e+00 5.5999999999999996e+00 0.0000000000000000e+00
0.0000000000000000e+00 5.5999999999999996e+00 0.0000000000000000e+00
0.0000000000000000e+00 5.5999999999999996e+00 0.0000000000000000e+00
ITEM: ATOMS x y z
0.68125 0.68125 0.68125
3.40625 3.40625 0.68125
3.40625 0.68125 3.40625
0.68125 3.40625 3.40625
4.76875 2.04375 2.04375
2.04375 4.76875 2.04375
2.04375 2.04375 4.76875
4.76875 4.76875 4.76875
ITEM: TIMESTEP
3740
ITEM: NUMBER OF ATOMS
8
ITEM: BOX BOUNDS xy xz yz pp pp pp
0.0000000000000000e+00 5.5999999999999996e+00 0.0000000000000000e+00
0.0000000000000000e+00 5.5999999999999996e+00 0.0000000000000000e+00
0.0000000000000000e+00 5.5999999999999996e+00 0.0000000000000000e+00
ITEM: ATOMS x y z
0.68125 0.68125 0.68125
3.40625 3.40625 0.68125
3.40625 0.68125 3.40625
0.68125 3.40625 3.40625
4.76875 2.04375 2.04375
2.04375 4.76875 2.04375
2.04375 2.04375 4.76875
4.76875 4.76875 4.76875
ITEM: TIMESTEP
3750
ITEM: NUMBER OF ATOMS
8
ITEM: BOX BOUNDS xy xz yz pp pp pp
0.0000000000000000e+00 5.5999999999999996e+00 0.0000000000000000e+00
0.0000000000000000e+00 5.5999999999999996e+00 0.0000000000000000e+00
0.0000000000000000e+00 5.5999999999999996e+00 0.0000000000000000e+00
ITEM: ATOMS x y z
0.68125 0.68125 0.68125
3.40625 3.40625 0.68125
3.40625 0.68125 3.40625
0.68125 3.40625 3.40625
4.76875 2.04375 2.04375
2.04375 4.76875 2.04375
2.04375 2.04375 4.76875
4.76875 4.76875 4.76875
ITEM: TIMESTEP
3760
ITEM: NUMBER OF ATOMS
8
ITEM: BOX BOUNDS xy xz yz pp pp pp
0.0000000000000000e+00 5.5999999999999996e+00 0.0000000000000000e+00
0.0000000000000000e+00 5.5999999999999996e+00 0.0000000000000000e+00
0.0000000000000000e+00 5.5999999999999996e+00 0.0000000000000000e+00
ITEM: ATOMS x y z
0.68125 0.68125 0.68125
3.40625 3.40625 0.68125
3.40625 0.68125 3.40625
0.68125 3.40625 3.40625
4.76875 2.04375 2.04375
2.04375 4.76875 2.04375
2.04375 2.04375 4.76875
4.76875 4.76875 4.76875
ITEM: TIMESTEP
3770
ITEM: NUMBER OF ATOMS
8
ITEM: BOX BOUNDS xy xz yz pp pp pp
0.0000000000000000e+00 5.5999999999999996e+00 0.0000000000000000e+00
0.0000000000000000e+00 5.5999999999999996e+00 0.0000000000000000e+00
0.0000000000000000e+00 5.5999999999999996e+00 0.0000000000000000e+00
ITEM: ATOMS x y z
0.68125 0.68125 0.68125
3.40625 3.40625 0.68125
3.40625 0.68125 3.40625
0.68125 3.40625 3.40625
4.76875 2.04375 2.04375
2.04375 4.76875 2.04375
2.04375 2.04375 4.76875
4.76875 4.76875 4.76875
ITEM: TIMESTEP
3780
ITEM: NUMBER OF ATOMS
8
ITEM: BOX BOUNDS xy xz yz pp pp pp
0.0000000000000000e+00 5.5999999999999996e+00 0.0000000000000000e+00
0.0000000000000000e+00 5.5999999999999996e+00 0.0000000000000000e+00
0.0000000000000000e+00 5.5999999999999996e+00 0.0000000000000000e+00
ITEM: ATOMS x y z
0.68125 0.68125 0.68125
3.40625 3.40625 0.68125
3.40625 0.68125 3.40625
0.68125 3.40625 3.40625
4.76875 2.04375 2.04375
2.04375 4.76875 2.04375
2.04375 2.04375 4.76875
4.76875 4.76875 4.76875
ITEM: TIMESTEP
3790
ITEM: NUMBER OF ATOMS
8
ITEM: BOX BOUNDS xy xz yz pp pp pp
0.0000000000000000e+00 5.5999999999999996e+00 0.0000000000000000e+00
0.0000000000000000e+00 5.5999999999999996e+00 0.0000000000000000e+00
0.0000000000000000e+00 5.5999999999999996e+00 0.0000000000000000e+00
ITEM: ATOMS x y z
0.68125 0.68125 0.68125
3.40625 3.40625 0.68125
3.40625 0.68125 3.40625
0.68125 3.40625 3.40625
4.76875 2.04375 2.04375
2.04375 4.76875 2.04375
2.04375 2.04375 4.76875
4.76875 4.76875 4.76875
ITEM: TIMESTEP
3800
ITEM: NUMBER OF ATOMS
8
ITEM: BOX BOUNDS xy xz yz pp pp pp
0.0000000000000000e+00 5.5999999999999996e+00 0.0000000000000000e+00
0.0000000000000000e+00 5.5999999999999996e+00 0.0000000000000000e+00
0.0000000000000000e+00 5.5999999999999996e+00 0.0000000000000000e+00
ITEM: ATOMS x y z
0.68125 0.68125 0.68125
3.40625 3.40625 0.68125
3.40625 0.68125 3.40625
0.68125 3.40625 3.40625
4.76875 2.04375 2.04375
2.04375 4.76875 2.04375
2.04375 2.04375 4.76875
4.76875 4.76875 4.76875
ITEM: TIMESTEP
3810
ITEM: NUMBER OF ATOMS
8
ITEM: BOX BOUNDS xy xz yz pp pp pp
0.0000000000000000e+00 5.5999999999999996e+00 0.0000000000000000e+00
0.0000000000000000e+00 5.5999999999999996e+00 0.0000000000000000e+00
0.0000000000000000e+00 5.5999999999999996e+00 0.0000000000000000e+00
ITEM: ATOMS x y z
0.68125 0.68125 0.68125
3.40625 3.40625 0.68125
3.40625 0.68125 3.40625
0.68125 3.40625 3.40625
4.76875 2.04375 2.04375
2.04375 4.76875 2.04375
2.04375 2.04375 4.76875
4.76875 4.76875 4.76875
ITEM: TIMESTEP
3820
ITEM: NUMBER OF ATOMS
8
ITEM: BOX BOUNDS xy xz yz pp pp pp
0.0000000000000000e+00 5.5999999999999996e+00 0.0000000000000000e+00
0.0000000000000000e+00 5.5999999999999996e+00 0.0000000000000000e+00
0.0000000000000000e+00 5.5999999999999996e+00 0.0000000000000000e+00
ITEM: ATOMS x y z
0.68125 0.68125 0.68125
3.40625 3.40625 0.68125
3.40625 0.68125 3.40625
0.68125 3.40625 3.40625
4.76875 2.04375 2.04375
2.04375 4.76875 2.04375
2.04375 2.04375 4.76875
4.76875 4.76875 4.76875
ITEM: TIMESTEP
3830
ITEM: NUMBER OF ATOMS
8
ITEM: BOX BOUNDS xy xz yz pp pp pp
0.0000000000000000e+00 5.5999999999999996e+00 0.0000000000000000e+00
0.0000000000000000e+00 5.5999999999999996e+00 0.0000000000000000e+00
0.0000000000000000e+00 5.5999999999999996e+00 0.0000000000000000e+00
ITEM: ATOMS x y z
0.68125 0.68125 0.68125
3.40625 3.40625 0.68125
3.40625 0.68125 3.40625
0.68125 3.40625 3.40625
4.76875 2.04375 2.04375
2.04375 4.76875 2.04375
2.04375 2.04375 4.76875
4.76875 4.76875 4.76875
ITEM: TIMESTEP
3840
ITEM: NUMBER OF ATOMS
8
ITEM: BOX BOUNDS xy xz yz pp pp pp
0.0000000000000000e+00 5.5999999999999996e+00 0.0000000000000000e+00
0.0000000000000000e+00 5.5999999999999996e+00 0.0000000000000000e+00
0.0000000000000000e+00 5.5999999999999996e+00 0.0000000000000000e+00
ITEM: ATOMS x y z
0.68125 0.68125 0.68125
3.40625 3.40625 0.68125
3.40625 0.68125 3.40625
0.68125 3.40625 3.40625
4.76875 2.04375 2.04375
2.04375 4.76875 2.04375
2.04375 2.04375 4.76875
4.76875 4.76875 4.76875
ITEM: TIMESTEP
3850
ITEM: NUMBER OF ATOMS
8
ITEM: BOX BOUNDS xy xz yz pp pp pp
0.0000000000000000e+00 5.5999999999999996e+00 0.0000000000000000e+00
0.0000000000000000e+00 5.5999999999999996e+00 0.0000000000000000e+00
0.0000000000000000e+00 5.5999999999999996e+00 0.0000000000000000e+00
ITEM: ATOMS x y z
0.68125 0.68125 0.68125
3.40625 3.40625 0.68125
3.40625 0.68125 3.40625
0.68125 3.40625 3.40625
4.76875 2.04375 2.04375
2.04375 4.76875 2.04375
2.04375 2.04375 4.76875
4.76875 4.76875 4.76875
ITEM: TIMESTEP
3860
ITEM: NUMBER OF ATOMS
8
ITEM: BOX BOUNDS xy xz yz pp pp pp
0.0000000000000000e+00 5.5999999999999996e+00 0.0000000000000000e+00
0.0000000000000000e+00 5.5999999999999996e+00 0.0000000000000000e+00
0.0000000000000000e+00 5.5999999999999996e+00 0.0000000000000000e+00
ITEM: ATOMS x y z
0.68125 0.68125 0.68125
3.40625 3.40625 0.68125
3.40625 0.68125 3.40625
0.68125 3.40625 3.40625
4.76875 2.04375 2.04375
2.04375 4.76875 2.04375
2.04375 2.04375 4.76875
4.76875 4.76875 4.76875
ITEM: TIMESTEP
3870
ITEM: NUMBER OF ATOMS
8
ITEM: BOX BOUNDS xy xz yz pp pp pp
0.0000000000000000e+00 5.5999999999999996e+00 0.0000000000000000e+00
0.0000000000000000e+00 5.5999999999999996e+00 0.0000000000000000e+00
0.0000000000000000e+00 5.5999999999999996e+00 0.0000000000000000e+00
ITEM: ATOMS x y z
0.68125 0.68125 0.68125
3.40625 3.40625 0.68125
3.40625 0.68125 3.40625
0.68125 3.40625 3.40625
4.76875 2.04375 2.04375
2.04375 4.76875 2.04375
2.04375 2.04375 4.76875
4.76875 4.76875 4.76875
ITEM: TIMESTEP
3880
ITEM: NUMBER OF ATOMS
8
ITEM: BOX BOUNDS xy xz yz pp pp pp
0.0000000000000000e+00 5.5999999999999996e+00 0.0000000000000000e+00
0.0000000000000000e+00 5.5999999999999996e+00 0.0000000000000000e+00
0.0000000000000000e+00 5.5999999999999996e+00 0.0000000000000000e+00
ITEM: ATOMS x y z
0.68125 0.68125 0.68125
3.40625 3.40625 0.68125
3.40625 0.68125 3.40625
0.68125 3.40625 3.40625
4.76875 2.04375 2.04375
2.04375 4.76875 2.04375
2.04375 2.04375 4.76875
4.76875 4.76875 4.76875
ITEM: TIMESTEP
3890
ITEM: NUMBER OF ATOMS
8
ITEM: BOX BOUNDS xy xz yz pp pp pp
0.0000000000000000e+00 5.5999999999999996e+00 0.0000000000000000e+00
0.0000000000000000e+00 5.5999999999999996e+00 0.0000000000000000e+00
0.0000000000000000e+00 5.5999999999999996e+00 0.0000000000000000e+00
ITEM: ATOMS x y z
0.68125 0.68125 0.68125
3.40625 3.40625 0.68125
3.40625 0.68125 3.40625
0.68125 3.40625 3.40625
4.76875 2.04375 2.04375
2.04375 4.76875 2.04375
2.04375 2.04375 4.76875
4.76875 4.76875 4.76875
ITEM: TIMESTEP
3900
ITEM: NUMBER OF ATOMS
8
ITEM: BOX BOUNDS xy xz yz pp pp pp
0.0000000000000000e+00 5.5999999999999996e+00 0.0000000000000000e+00
0.0000000000000000e+00 5.5999999999999996e+00 0.0000000000000000e+00
0.0000000000000000e+00 5.5999999999999996e+00 0.0000000000000000e+00
ITEM: ATOMS x y z
0.68125 0.68125 0.68125
3.40625 3.40625 0.68125
3.40625 0.68125 3.40625
0.68125 3.40625 3.40625
4.76875 2.04375 2.04375
2.04375 4.76875 2.04375
2.04375 2.04375 4.76875
4.76875 4.76875 4.76875
ITEM: TIMESTEP
3910
ITEM: NUMBER OF ATOMS
8
ITEM: BOX BOUNDS xy xz yz pp pp pp
0.0000000000000000e+00 5.5999999999999996e+00 0.0000000000000000e+00
0.0000000000000000e+00 5.5999999999999996e+00 0.0000000000000000e+00
0.0000000000000000e+00 5.5999999999999996e+00 0.0000000000000000e+00
ITEM: ATOMS x y z
0.68125 0.68125 0.68125
3.40625 3.40625 0.68125
3.40625 0.68125 3.40625
0.68125 3.40625 3.40625
4.76875 2.04375 2.04375
2.04375 4.76875 2.04375
2.04375 2.04375 4.76875
4.76875 4.76875 4.76875
ITEM: TIMESTEP
3920
ITEM: NUMBER OF ATOMS
8
ITEM: BOX BOUNDS xy xz yz pp pp pp
0.0000000000000000e+00 5.5999999999999996e+00 0.0000000000000000e+00
0.0000000000000000e+00 5.5999999999999996e+00 0.0000000000000000e+00
0.0000000000000000e+00 5.5999999999999996e+00 0.0000000000000000e+00
ITEM: ATOMS x y z
0.68125 0.68125 0.68125
3.40625 3.40625 0.68125
3.40625 0.68125 3.40625
0.68125 3.40625 3.40625
4.76875 2.04375 2.04375
2.04375 4.76875 2.04375
2.04375 2.04375 4.76875
4.76875 4.76875 4.76875
ITEM: TIMESTEP
3930
ITEM: NUMBER OF ATOMS
8
ITEM: BOX BOUNDS xy xz yz pp pp pp
0.0000000000000000e+00 5.5999999999999996e+00 0.0000000000000000e+00
0.0000000000000000e+00 5.5999999999999996e+00 0.0000000000000000e+00
0.0000000000000000e+00 5.5999999999999996e+00 0.0000000000000000e+00
ITEM: ATOMS x y z
0.68125 0.68125 0.68125
3.40625 3.40625 0.68125
3.40625 0.68125 3.40625
0.68125 3.40625 3.40625
4.76875 2.04375 2.04375
2.04375 4.76875 2.04375
2.04375 2.04375 4.76875
4.76875 4.76875 4.76875
ITEM: TIMESTEP
3940
ITEM: NUMBER OF ATOMS
8
ITEM: BOX BOUNDS xy xz yz pp pp pp
0.0000000000000000e+00 5.5999999999999996e+00 0.0000000000000000e+00
0.0000000000000000e+00 5.5999999999999996e+00 0.0000000000000000e+00
0.0000000000000000e+00 5.5999999999999996e+00 0.0000000000000000e+00
ITEM: ATOMS x y z
0.68125 0.68125 0.68125
3.40625 3.40625 0.68125
3.40625 0.68125 3.40625
0.68125 3.40625 3.40625
4.76875 2.04375 2.04375
2.04375 4.76875 2.04375
2.04375 2.04375 4.76875
4.76875 4.76875 4.76875
ITEM: TIMESTEP
3950
ITEM: NUMBER OF ATOMS
8
ITEM: BOX BOUNDS xy xz yz pp pp pp
0.0000000000000000e+00 5.5999999999999996e+00 0.0000000000000000e+00
0.0000000000000000e+00 5.5999999999999996e+00 0.0000000000000000e+00
0.0000000000000000e+00 5.5999999999999996e+00 0.0000000000000000e+00
ITEM: ATOMS x y z
0.68125 0.68125 0.68125
3.40625 3.40625 0.68125
3.40625 0.68125 3.40625
0.68125 3.40625 3.40625
4.76875 2.04375 2.04375
2.04375 4.76875 2.04375
2.04375 2.04375 4.76875
4.76875 4.76875 4.76875
ITEM: TIMESTEP
3960
ITEM: NUMBER OF ATOMS
8
ITEM: BOX BOUNDS xy xz yz pp pp pp
0.0000000000000000e+00 5.5999999999999996e+00 0.0000000000000000e+00
0.0000000000000000e+00 5.5999999999999996e+00 0.0000000000000000e+00
0.0000000000000000e+00 5.5999999999999996e+00 0.0000000000000000e+00
ITEM: ATOMS x y z
0.68125 0.68125 0.68125
3.40625 3.40625 0.68125
3.40625 0.68125 3.40625
0.68125 3.40625 3.40625
4.76875 2.04375 2.04375
2.04375 4.76875 2.04375
2.04375 2.04375 4.76875
4.76875 4.76875 4.76875
ITEM: TIMESTEP
3970
ITEM: NUMBER OF ATOMS
8
ITEM: BOX BOUNDS xy xz yz pp pp pp
0.0000000000000000e+00 5.5999999999999996e+00 0.0000000000000000e+00
0.0000000000000000e+00 5.5999999999999996e+00 0.0000000000000000e+00
0.0000000000000000e+00 5.5999999999999996e+00 0.0000000000000000e+00
ITEM: ATOMS x y z
0.68125 0.68125 0.68125
3.40625 3.40625 0.68125
3.40625 0.68125 3.40625
0.68125 3.40625 3.40625
4.76875 2.04375 2.04375
2.04375 4.76875 2.04375
2.04375 2.04375 4.76875
4.76875 4.76875 4.76875
ITEM: TIMESTEP
3980
ITEM: NUMBER OF ATOMS
8
ITEM: BOX BOUNDS xy xz yz pp pp pp
0.0000000000000000e+00 5.5999999999999996e+00 0.0000000000000000e+00
0.0000000000000000e+00 5.5999999999999996e+00 0.0000000000000000e+00
0.0000000000000000e+00 5.5999999999999996e+00 0.0000000000000000e+00
ITEM: ATOMS x y z
0.68125 0.68125 0.68125
3.40625 3.40625 0.68125
3.40625 0.68125 3.40625
0.68125 3.40625 3.40625
4.76875 2.04375 2.04375
2.04375 4.76875 2.04375
2.04375 2.04375 4.76875
4.76875 4.76875 4.76875
ITEM: TIMESTEP
3990
ITEM: NUMBER OF ATOMS
8
ITEM: BOX BOUNDS xy xz yz pp pp pp
0.0000000000000000e+00 5.5999999999999996e+00 0.0000000000000000e+00
0.0000000000000000e+00 5.5999999999999996e+00 0.0000000000000000e+00
0.0000000000000000e+00 5.5999999999999996e+00 0.0000000000000000e+00
ITEM: ATOMS x y z
0.68125 0.68125 0.68125
3.40625 3.40625 0.68125
3.40625 0.68125 3.40625
0.68125 3.40625 3.40625
4.76875 2.04375 2.04375
2.04375 4.76875 2.04375
2.04375 2.04375 4.76875
4.76875 4.76875 4.76875
ITEM: TIMESTEP
4000
ITEM: NUMBER OF ATOMS
8
ITEM: BOX BOUNDS xy xz yz pp pp pp
0.0000000000000000e+00 5.5999999999999996e+00 0.0000000000000000e+00
0.0000000000000000e+00 5.5999999999999996e+00 0.0000000000000000e+00
0.0000000000000000e+00 5.5999999999999996e+00 0.0000000000000000e+00
ITEM: ATOMS x y z
0.68125 0.68125 0.68125
3.40625 3.40625 0.68125
3.40625 0.68125 3.40625
0.68125 3.40625 3.40625
4.76875 2.04375 2.04375
2.04375 4.76875 2.04375
2.04375 2.04375 4.76875
4.76875 4.76875 4.76875
ITEM: TIMESTEP
4010
ITEM: NUMBER OF ATOMS
8
ITEM: BOX BOUNDS xy xz yz pp pp pp
0.0000000000000000e+00 5.5999999999999996e+00 0.0000000000000000e+00
0.0000000000000000e+00 5.5999999999999996e+00 0.0000000000000000e+00
0.0000000000000000e+00 5.5999999999999996e+00 0.0000000000000000e+00
ITEM: ATOMS x y z
0.68125 0.68125 0.68125
3.40625 3.40625 0.68125
3.40625 0.68125 3.40625
0.68125 3.40625 3.40625
4.76875 2.04375 2.04375
2.04375 4.76875 2.04375
2.04375 2.04375 4.76875
4.76875 4.76875 4.76875
ITEM: TIMESTEP
4020
ITEM: NUMBER OF ATOMS
8
ITEM: BOX BOUNDS xy xz yz pp pp pp
0.0000000000000000e+00 5.5999999999999996e+00 0.0000000000000000e+00
0.0000000000000000e+00 5.5999999999999996e+00 0.0000000000000000e+00
0.0000000000000000e+00 5.5999999999999996e+00 0.0000000000000000e+00
ITEM: ATOMS x y z
0.68125 0.68125 0.68125
3.40625 3.40625 0.68125
3.40625 0.68125 3.40625
0.68125 3.40625 3.40625
4.76875 2.04375 2.04375
2.04375 4.76875 2.04375
2.04375 2.04375 4.76875
4.76875 4.76875 4.76875
ITEM: TIMESTEP
4030
ITEM: NUMBER OF ATOMS
8
ITEM: BOX BOUNDS xy xz yz pp pp pp
0.0000000000000000e+00 5.5999999999999996e+00 0.0000000000000000e+00
0.0000000000000000e+00 5.5999999999999996e+00 0.0000000000000000e+00
0.0000000000000000e+00 5.5999999999999996e+00 0.0000000000000000e+00
ITEM: ATOMS x y z
0.68125 0.68125 0.68125
3.40625 3.40625 0.68125
3.40625 0.68125 3.40625
0.68125 3.40625 3.40625
4.76875 2.04375 2.04375
2.04375 4.76875 2.04375
2.04375 2.04375 4.76875
4.76875 4.76875 4.76875
ITEM: TIMESTEP
4040
ITEM: NUMBER OF ATOMS
8
ITEM: BOX BOUNDS xy xz yz pp pp pp
0.0000000000000000e+00 5.5999999999999996e+00 0.0000000000000000e+00
0.0000000000000000e+00 5.5999999999999996e+00 0.0000000000000000e+00
0.0000000000000000e+00 5.5999999999999996e+00 0.0000000000000000e+00
ITEM: ATOMS x y z
0.68125 0.68125 0.68125
3.40625 3.40625 0.68125
3.40625 0.68125 3.40625
0.68125 3.40625 3.40625
4.76875 2.04375 2.04375
2.04375 4.76875 2.04375
2.04375 2.04375 4.76875
4.76875 4.76875 4.76875
ITEM: TIMESTEP
4050
ITEM: NUMBER OF ATOMS
8
ITEM: BOX BOUNDS xy xz yz pp pp pp
0.0000000000000000e+00 5.5999999999999996e+00 0.0000000000000000e+00
0.0000000000000000e+00 5.5999999999999996e+00 0.0000000000000000e+00
0.0000000000000000e+00 5.5999999999999996e+00 0.0000000000000000e+00
ITEM: ATOMS x y z
0.68125 0.68125 0.68125
3.40625 3.40625 0.68125
3.40625 0.68125 3.40625
0.68125 3.40625 3.40625
4.76875 2.04375 2.04375
2.04375 4.76875 2.04375
2.04375 2.04375 4.76875
4.76875 4.76875 4.76875
ITEM: TIMESTEP
4060
ITEM: NUMBER OF ATOMS
8
ITEM: BOX BOUNDS xy xz yz pp pp pp
0.0000000000000000e+00 5.5999999999999996e+00 0.0000000000000000e+00
0.0000000000000000e+00 5.5999999999999996e+00 0.0000000000000000e+00
0.0000000000000000e+00 5.5999999999999996e+00 0.0000000000000000e+00
ITEM: ATOMS x y z
0.68125 0.68125 0.68125
3.40625 3.40625 0.68125
3.40625 0.68125 3.40625
0.68125 3.40625 3.40625
4.76875 2.04375 2.04375
2.04375 4.76875 2.04375
2.04375 2.04375 4.76875
4.76875 4.76875 4.76875
ITEM: TIMESTEP
4070
ITEM: NUMBER OF ATOMS
8
ITEM: BOX BOUNDS xy xz yz pp pp pp
0.0000000000000000e+00 5.5999999999999996e+00 0.0000000000000000e+00
0.0000000000000000e+00 5.5999999999999996e+00 0.0000000000000000e+00
0.0000000000000000e+00 5.5999999999999996e+00 0.0000000000000000e+00
ITEM: ATOMS x y z
0.68125 0.68125 0.68125
3.40625 3.40625 0.68125
3.40625 0.68125 3.40625
0.68125 3.40625 3.40625
4.76875 2.04375 2.04375
2.04375 4.76875 2.04375
2.04375 2.04375 4.76875
4.76875 4.76875 4.76875
ITEM: TIMESTEP
4080
ITEM: NUMBER OF ATOMS
8
ITEM: BOX BOUNDS xy xz yz pp pp pp
0.0000000000000000e+00 5.5999999999999996e+00 0.0000000000000000e+00
0.0000000000000000e+00 5.5999999999999996e+00 0.0000000000000000e+00
0.0000000000000000e+00 5.5999999999999996e+00 0.0000000000000000e+00
ITEM: ATOMS x y z
0.68125 0.68125 0.68125
3.40625 3.40625 0.68125
3.40625 0.68125 3.40625
0.68125 3.40625 3.40625
4.76875 2.04375 2.04375
2.04375 4.76875 2.04375
2.04375 2.04375 4.76875
4.76875 4.76875 4.76875
ITEM: TIMESTEP
4090
ITEM: NUMBER OF ATOMS
8
ITEM: BOX BOUNDS xy xz yz pp pp pp
0.0000000000000000e+00 5.5999999999999996e+00 0.0000000000000000e+00
0.0000000000000000e+00 5.5999999999999996e+00 0.0000000000000000e+00
0.0000000000000000e+00 5.5999999999999996e+00 0.0000000000000000e+00
ITEM: ATOMS x y z
0.68125 0.68125 0.68125
3.40625 3.40625 0.68125
3.40625 0.68125 3.40625
0.68125 3.40625 3.40625
4.76875 2.04375 2.04375
2.04375 4.76875 2.04375
2.04375 2.04375 4.76875
4.76875 4.76875 4.76875
ITEM: TIMESTEP
4100
ITEM: NUMBER OF ATOMS
8
ITEM: BOX BOUNDS xy xz yz pp pp pp
0.0000000000000000e+00 5.5999999999999996e+00 0.0000000000000000e+00
0.0000000000000000e+00 5.5999999999999996e+00 0.0000000000000000e+00
0.0000000000000000e+00 5.5999999999999996e+00 0.0000000000000000e+00
ITEM: ATOMS x y z
0.68125 0.68125 0.68125
3.40625 3.40625 0.68125
3.40625 0.68125 3.40625
0.68125 3.40625 3.40625
4.76875 2.04375 2.04375
2.04375 4.76875 2.04375
2.04375 2.04375 4.76875
4.76875 4.76875 4.76875
ITEM: TIMESTEP
4110
ITEM: NUMBER OF ATOMS
8
ITEM: BOX BOUNDS xy xz yz pp pp pp
0.0000000000000000e+00 5.5999999999999996e+00 0.0000000000000000e+00
0.0000000000000000e+00 5.5999999999999996e+00 0.0000000000000000e+00
0.0000000000000000e+00 5.5999999999999996e+00 0.0000000000000000e+00
ITEM: ATOMS x y z
0.68125 0.68125 0.68125
3.40625 3.40625 0.68125
3.40625 0.68125 3.40625
0.68125 3.40625 3.40625
4.76875 2.04375 2.04375
2.04375 4.76875 2.04375
2.04375 2.04375 4.76875
4.76875 4.76875 4.76875
ITEM: TIMESTEP
4120
ITEM: NUMBER OF ATOMS
8
ITEM: BOX BOUNDS xy xz yz pp pp pp
0.0000000000000000e+00 5.5999999999999996e+00 0.0000000000000000e+00
0.0000000000000000e+00 5.5999999999999996e+00 0.0000000000000000e+00
0.0000000000000000e+00 5.5999999999999996e+00 0.0000000000000000e+00
ITEM: ATOMS x y z
0.68125 0.68125 0.68125
3.40625 3.40625 0.68125
3.40625 0.68125 3.40625
0.68125 3.40625 3.40625
4.76875 2.04375 2.04375
2.04375 4.76875 2.04375
2.04375 2.04375 4.76875
4.76875 4.76875 4.76875
ITEM: TIMESTEP
4130
ITEM: NUMBER OF ATOMS
8
ITEM: BOX BOUNDS xy xz yz pp pp pp
0.0000000000000000e+00 5.5999999999999996e+00 0.0000000000000000e+00
0.0000000000000000e+00 5.5999999999999996e+00 0.0000000000000000e+00
0.0000000000000000e+00 5.5999999999999996e+00 0.0000000000000000e+00
ITEM: ATOMS x y z
0.68125 0.68125 0.68125
3.40625 3.40625 0.68125
3.40625 0.68125 3.40625
0.68125 3.40625 3.40625
4.76875 2.04375 2.04375
2.04375 4.76875 2.04375
2.04375 2.04375 4.76875
4.76875 4.76875 4.76875
ITEM: TIMESTEP
4140
ITEM: NUMBER OF ATOMS
8
ITEM: BOX BOUNDS xy xz yz pp pp pp
0.0000000000000000e+00 5.5999999999999996e+00 0.0000000000000000e+00
0.0000000000000000e+00 5.5999999999999996e+00 0.0000000000000000e+00
0.0000000000000000e+00 5.5999999999999996e+00 0.0000000000000000e+00
ITEM: ATOMS x y z
0.68125 0.68125 0.68125
3.40625 3.40625 0.68125
3.40625 0.68125 3.40625
0.68125 3.40625 3.40625
4.76875 2.04375 2.04375
2.04375 4.76875 2.04375
2.04375 2.04375 4.76875
4.76875 4.76875 4.76875
ITEM: TIMESTEP
4150
ITEM: NUMBER OF ATOMS
8
ITEM: BOX BOUNDS xy xz yz pp pp pp
0.0000000000000000e+00 5.5999999999999996e+00 0.0000000000000000e+00
0.0000000000000000e+00 5.5999999999999996e+00 0.0000000000000000e+00
0.0000000000000000e+00 5.5999999999999996e+00 0.0000000000000000e+00
ITEM: ATOMS x y z
0.68125 0.68125 0.68125
3.40625 3.40625 0.68125
3.40625 0.68125 3.40625
0.68125 3.40625 3.40625
4.76875 2.04375 2.04375
2.04375 4.76875 2.04375
2.04375 2.04375 4.76875
4.76875 4.76875 4.76875
ITEM: TIMESTEP
4160
ITEM: NUMBER OF ATOMS
8
ITEM: BOX BOUNDS xy xz yz pp pp pp
0.0000000000000000e+00 5.5999999999999996e+00 0.0000000000000000e+00
0.0000000000000000e+00 5.5999999999999996e+00 0.0000000000000000e+00
0.0000000000000000e+00 5.5999999999999996e+00 0.0000000000000000e+00
ITEM: ATOMS x y z
0.68125 0.68125 0.68125
3.40625 3.40625 0.68125
3.40625 0.68125 3.40625
0.68125 3.40625 3.40625
4.76875 2.04375 2.04375
2.04375 4.76875 2.04375
2.04375 2.04375 4.76875
4.76875 4.76875 4.76875
ITEM: TIMESTEP
4170
ITEM: NUMBER OF ATOMS
8
ITEM: BOX BOUNDS xy xz yz pp pp pp
0.0000000000000000e+00 5.5999999999999996e+00 0.0000000000000000e+00
0.0000000000000000e+00 5.5999999999999996e+00 0.0000000000000000e+00
0.0000000000000000e+00 5.5999999999999996e+00 0.0000000000000000e+00
ITEM: ATOMS x y z
0.68125 0.68125 0.68125
3.40625 3.40625 0.68125
3.40625 0.68125 3.40625
0.68125 3.40625 3.40625
4.76875 2.04375 2.04375
2.04375 4.76875 2.04375
2.04375 2.04375 4.76875
4.76875 4.76875 4.76875
ITEM: TIMESTEP
4180
ITEM: NUMBER OF ATOMS
8
ITEM: BOX BOUNDS xy xz yz pp pp pp
0.0000000000000000e+00 5.5999999999999996e+00 0.0000000000000000e+00
0.0000000000000000e+00 5.5999999999999996e+00 0.0000000000000000e+00
0.0000000000000000e+00 5.5999999999999996e+00 0.0000000000000000e+00
ITEM: ATOMS x y z
0.68125 0.68125 0.68125
3.40625 3.40625 0.68125
3.40625 0.68125 3.40625
0.68125 3.40625 3.40625
4.76875 2.04375 2.04375
2.04375 4.76875 2.04375
2.04375 2.04375 4.76875
4.76875 4.76875 4.76875
ITEM: TIMESTEP
4190
ITEM: NUMBER OF ATOMS
8
ITEM: BOX BOUNDS xy xz yz pp pp pp
0.0000000000000000e+00 5.5999999999999996e+00 0.0000000000000000e+00
0.0000000000000000e+00 5.5999999999999996e+00 0.0000000000000000e+00
0.0000000000000000e+00 5.5999999999999996e+00 0.0000000000000000e+00
ITEM: ATOMS x y z
0.68125 0.68125 0.68125
3.40625 3.40625 0.68125
3.40625 0.68125 3.40625
0.68125 3.40625 3.40625
4.76875 2.04375 2.04375
2.04375 4.76875 2.04375
2.04375 2.04375 4.76875
4.76875 4.76875 4.76875
ITEM: TIMESTEP
4200
ITEM: NUMBER OF ATOMS
8
ITEM: BOX BOUNDS xy xz yz pp pp pp
0.0000000000000000e+00 5.5999999999999996e+00 0.0000000000000000e+00
0.0000000000000000e+00 5.5999999999999996e+00 0.0000000000000000e+00
0.0000000000000000e+00 5.5999999999999996e+00 0.0000000000000000e+00
ITEM: ATOMS x y z
0.68125 0.68125 0.68125
3.40625 3.40625 0.68125
3.40625 0.68125 3.40625
0.68125 3.40625 3.40625
4.76875 2.04375 2.04375
2.04375 4.76875 2.04375
2.04375 2.04375 4.76875
4.76875 4.76875 4.76875
ITEM: TIMESTEP
4210
ITEM: NUMBER OF ATOMS
8
ITEM: BOX BOUNDS xy xz yz pp pp pp
0.0000000000000000e+00 5.5999999999999996e+00 0.0000000000000000e+00
0.0000000000000000e+00 5.5999999999999996e+00 0.0000000000000000e+00
0.0000000000000000e+00 5.5999999999999996e+00 0.0000000000000000e+00
ITEM: ATOMS x y z
0.68125 0.68125 0.68125
3.40625 3.40625 0.68125
3.40625 0.68125 3.40625
0.68125 3.40625 3.40625
4.76875 2.04375 2.04375
2.04375 4.76875 2.04375
2.04375 2.04375 4.76875
4.76875 4.76875 4.76875
ITEM: TIMESTEP
4220
ITEM: NUMBER OF ATOMS
8
ITEM: BOX BOUNDS xy xz yz pp pp pp
0.0000000000000000e+00 5.5999999999999996e+00 0.0000000000000000e+00
0.0000000000000000e+00 5.5999999999999996e+00 0.0000000000000000e+00
0.0000000000000000e+00 5.5999999999999996e+00 0.0000000000000000e+00
ITEM: ATOMS x y z
0.68125 0.68125 0.68125
3.40625 3.40625 0.68125
3.40625 0.68125 3.40625
0.68125 3.40625 3.40625
4.76875 2.04375 2.04375
2.04375 4.76875 2.04375
2.04375 2.04375 4.76875
4.76875 4.76875 4.76875
ITEM: TIMESTEP
4230
ITEM: NUMBER OF ATOMS
8
ITEM: BOX BOUNDS xy xz yz pp pp pp
0.0000000000000000e+00 5.5999999999999996e+00 0.0000000000000000e+00
0.0000000000000000e+00 5.5999999999999996e+00 0.0000000000000000e+00
0.0000000000000000e+00 5.5999999999999996e+00 0.0000000000000000e+00
ITEM: ATOMS x y z
0.68125 0.68125 0.68125
3.40625 3.40625 0.68125
3.40625 0.68125 3.40625
0.68125 3.40625 3.40625
4.76875 2.04375 2.04375
2.04375 4.76875 2.04375
2.04375 2.04375 4.76875
4.76875 4.76875 4.76875
ITEM: TIMESTEP
4240
ITEM: NUMBER OF ATOMS
8
ITEM: BOX BOUNDS xy xz yz pp pp pp
0.0000000000000000e+00 5.5999999999999996e+00 0.0000000000000000e+00
0.0000000000000000e+00 5.5999999999999996e+00 0.0000000000000000e+00
0.0000000000000000e+00 5.5999999999999996e+00 0.0000000000000000e+00
ITEM: ATOMS x y z
0.68125 0.68125 0.68125
3.40625 3.40625 0.68125
3.40625 0.68125 3.40625
0.68125 3.40625 3.40625
4.76875 2.04375 2.04375
2.04375 4.76875 2.04375
2.04375 2.04375 4.76875
4.76875 4.76875 4.76875
ITEM: TIMESTEP
4250
ITEM: NUMBER OF ATOMS
8
ITEM: BOX BOUNDS xy xz yz pp pp pp
0.0000000000000000e+00 5.5999999999999996e+00 0.0000000000000000e+00
0.0000000000000000e+00 5.5999999999999996e+00 0.0000000000000000e+00
0.0000000000000000e+00 5.5999999999999996e+00 0.0000000000000000e+00
ITEM: ATOMS x y z
0.68125 0.68125 0.68125
3.40625 3.40625 0.68125
3.40625 0.68125 3.40625
0.68125 3.40625 3.40625
4.76875 2.04375 2.04375
2.04375 4.76875 2.04375
2.04375 2.04375 4.76875
4.76875 4.76875 4.76875
ITEM: TIMESTEP
4260
ITEM: NUMBER OF ATOMS
8
ITEM: BOX BOUNDS xy xz yz pp pp pp
0.0000000000000000e+00 5.5999999999999996e+00 0.0000000000000000e+00
0.0000000000000000e+00 5.5999999999999996e+00 0.0000000000000000e+00
0.0000000000000000e+00 5.5999999999999996e+00 0.0000000000000000e+00
ITEM: ATOMS x y z
0.68125 0.68125 0.68125
3.40625 3.40625 0.68125
3.40625 0.68125 3.40625
0.68125 3.40625 3.40625
4.76875 2.04375 2.04375
2.04375 4.76875 2.04375
2.04375 2.04375 4.76875
4.76875 4.76875 4.76875
ITEM: TIMESTEP
4270
ITEM: NUMBER OF ATOMS
8
ITEM: BOX BOUNDS xy xz yz pp pp pp
0.0000000000000000e+00 5.5999999999999996e+00 0.0000000000000000e+00
0.0000000000000000e+00 5.5999999999999996e+00 0.0000000000000000e+00
0.0000000000000000e+00 5.5999999999999996e+00 0.0000000000000000e+00
ITEM: ATOMS x y z
0.68125 0.68125 0.68125
3.40625 3.40625 0.68125
3.40625 0.68125 3.40625
0.68125 3.40625 3.40625
4.76875 2.04375 2.04375
2.04375 4.76875 2.04375
2.04375 2.04375 4.76875
4.76875 4.76875 4.76875
ITEM: TIMESTEP
4280
ITEM: NUMBER OF ATOMS
8
ITEM: BOX BOUNDS xy xz yz pp pp pp
0.0000000000000000e+00 5.5999999999999996e+00 0.0000000000000000e+00
0.0000000000000000e+00 5.5999999999999996e+00 0.0000000000000000e+00
0.0000000000000000e+00 5.5999999999999996e+00 0.0000000000000000e+00
ITEM: ATOMS x y z
0.68125 0.68125 0.68125
3.40625 3.40625 0.68125
3.40625 0.68125 3.40625
0.68125 3.40625 3.40625
4.76875 2.04375 2.04375
2.04375 4.76875 2.04375
2.04375 2.04375 4.76875
4.76875 4.76875 4.76875
ITEM: TIMESTEP
4290
ITEM: NUMBER OF ATOMS
8
ITEM: BOX BOUNDS xy xz yz pp pp pp
0.0000000000000000e+00 5.5999999999999996e+00 0.0000000000000000e+00
0.0000000000000000e+00 5.5999999999999996e+00 0.0000000000000000e+00
0.0000000000000000e+00 5.5999999999999996e+00 0.0000000000000000e+00
ITEM: ATOMS x y z
0.68125 0.68125 0.68125
3.40625 3.40625 0.68125
3.40625 0.68125 3.40625
0.68125 3.40625 3.40625
4.76875 2.04375 2.04375
2.04375 4.76875 2.04375
2.04375 2.04375 4.76875
4.76875 4.76875 4.76875
ITEM: TIMESTEP
4300
ITEM: NUMBER OF ATOMS
8
ITEM: BOX BOUNDS xy xz yz pp pp pp
0.0000000000000000e+00 5.5999999999999996e+00 0.0000000000000000e+00
0.0000000000000000e+00 5.5999999999999996e+00 0.0000000000000000e+00
0.0000000000000000e+00 5.5999999999999996e+00 0.0000000000000000e+00
ITEM: ATOMS x y z
0.68125 0.68125 0.68125
3.40625 3.40625 0.68125
3.40625 0.68125 3.40625
0.68125 3.40625 3.40625
4.76875 2.04375 2.04375
2.04375 4.76875 2.04375
2.04375 2.04375 4.76875
4.76875 4.76875 4.76875
ITEM: TIMESTEP
4310
ITEM: NUMBER OF ATOMS
8
ITEM: BOX BOUNDS xy xz yz pp pp pp
0.0000000000000000e+00 5.5999999999999996e+00 0.0000000000000000e+00
0.0000000000000000e+00 5.5999999999999996e+00 0.0000000000000000e+00
0.0000000000000000e+00 5.5999999999999996e+00 0.0000000000000000e+00
ITEM: ATOMS x y z
0.68125 0.68125 0.68125
3.40625 3.40625 0.68125
3.40625 0.68125 3.40625
0.68125 3.40625 3.40625
4.76875 2.04375 2.04375
2.04375 4.76875 2.04375
2.04375 2.04375 4.76875
4.76875 4.76875 4.76875
ITEM: TIMESTEP
4320
ITEM: NUMBER OF ATOMS
8
ITEM: BOX BOUNDS xy xz yz pp pp pp
0.0000000000000000e+00 5.5999999999999996e+00 0.0000000000000000e+00
0.0000000000000000e+00 5.5999999999999996e+00 0.0000000000000000e+00
0.0000000000000000e+00 5.5999999999999996e+00 0.0000000000000000e+00
ITEM: ATOMS x y z
0.68125 0.68125 0.68125
3.40625 3.40625 0.68125
3.40625 0.68125 3.40625
0.68125 3.40625 3.40625
4.76875 2.04375 2.04375
2.04375 4.76875 2.04375
2.04375 2.04375 4.76875
4.76875 4.76875 4.76875
ITEM: TIMESTEP
4330
ITEM: NUMBER OF ATOMS
8
ITEM: BOX BOUNDS xy xz yz pp pp pp
0.0000000000000000e+00 5.5999999999999996e+00 0.0000000000000000e+00
0.0000000000000000e+00 5.5999999999999996e+00 0.0000000000000000e+00
0.0000000000000000e+00 5.5999999999999996e+00 0.0000000000000000e+00
ITEM: ATOMS x y z
0.68125 0.68125 0.68125
3.40625 3.40625 0.68125
3.40625 0.68125 3.40625
0.68125 3.40625 3.40625
4.76875 2.04375 2.04375
2.04375 4.76875 2.04375
2.04375 2.04375 4.76875
4.76875 4.76875 4.76875
ITEM: TIMESTEP
4340
ITEM: NUMBER OF ATOMS
8
ITEM: BOX BOUNDS xy xz yz pp pp pp
0.0000000000000000e+00 5.5999999999999996e+00 0.0000000000000000e+00
0.0000000000000000e+00 5.5999999999999996e+00 0.0000000000000000e+00
0.0000000000000000e+00 5.5999999999999996e+00 0.0000000000000000e+00
ITEM: ATOMS x y z
0.68125 0.68125 0.68125
3.40625 3.40625 0.68125
3.40625 0.68125 3.40625
0.68125 3.40625 3.40625
4.76875 2.04375 2.04375
2.04375 4.76875 2.04375
2.04375 2.04375 4.76875
4.76875 4.76875 4.76875
ITEM: TIMESTEP
4350
ITEM: NUMBER OF ATOMS
8
ITEM: BOX BOUNDS xy xz yz pp pp pp
0.0000000000000000e+00 5.5999999999999996e+00 0.0000000000000000e+00
0.0000000000000000e+00 5.5999999999999996e+00 0.0000000000000000e+00
0.0000000000000000e+00 5.5999999999999996e+00 0.0000000000000000e+00
ITEM: ATOMS x y z
0.68125 0.68125 0.68125
3.40625 3.40625 0.68125
3.40625 0.68125 3.40625
0.68125 3.40625 3.40625
4.76875 2.04375 2.04375
2.04375 4.76875 2.04375
2.04375 2.04375 4.76875
4.76875 4.76875 4.76875
ITEM: TIMESTEP
4360
ITEM: NUMBER OF ATOMS
8
ITEM: BOX BOUNDS xy xz yz pp pp pp
0.0000000000000000e+00 5.5999999999999996e+00 0.0000000000000000e+00
0.0000000000000000e+00 5.5999999999999996e+00 0.0000000000000000e+00
0.0000000000000000e+00 5.5999999999999996e+00 0.0000000000000000e+00
ITEM: ATOMS x y z
0.68125 0.68125 0.68125
3.40625 3.40625 0.68125
3.40625 0.68125 3.40625
0.68125 3.40625 3.40625
4.76875 2.04375 2.04375
2.04375 4.76875 2.04375
2.04375 2.04375 4.76875
4.76875 4.76875 4.76875
ITEM: TIMESTEP
4370
ITEM: NUMBER OF ATOMS
8
ITEM: BOX BOUNDS xy xz yz pp pp pp
0.0000000000000000e+00 5.5999999999999996e+00 0.0000000000000000e+00
0.0000000000000000e+00 5.5999999999999996e+00 0.0000000000000000e+00
0.0000000000000000e+00 5.5999999999999996e+00 0.0000000000000000e+00
ITEM: ATOMS x y z
0.68125 0.68125 0.68125
3.40625 3.40625 0.68125
3.40625 0.68125 3.40625
0.68125 3.40625 3.40625
4.76875 2.04375 2.04375
2.04375 4.76875 2.04375
2.04375 2.04375 4.76875
4.76875 4.76875 4.76875
ITEM: TIMESTEP
4380
ITEM: NUMBER OF ATOMS
8
ITEM: BOX BOUNDS xy xz yz pp pp pp
0.0000000000000000e+00 5.5999999999999996e+00 0.0000000000000000e+00
0.0000000000000000e+00 5.5999999999999996e+00 0.0000000000000000e+00
0.0000000000000000e+00 5.5999999999999996e+00 0.0000000000000000e+00
ITEM: ATOMS x y z
0.68125 0.68125 0.68125
3.40625 3.40625 0.68125
3.40625 0.68125 3.40625
0.68125 3.40625 3.40625
4.76875 2.04375 2.04375
2.04375 4.76875 2.04375
2.04375 2.04375 4.76875
4.76875 4.76875 4.76875
ITEM: TIMESTEP
4390
ITEM: NUMBER OF ATOMS
8
ITEM: BOX BOUNDS xy xz yz pp pp pp
0.0000000000000000e+00 5.5999999999999996e+00 0.0000000000000000e+00
0.0000000000000000e+00 5.5999999999999996e+00 0.0000000000000000e+00
0.0000000000000000e+00 5.5999999999999996e+00 0.0000000000000000e+00
ITEM: ATOMS x y z
0.68125 0.68125 0.68125
3.40625 3.40625 0.68125
3.40625 0.68125 3.40625
0.68125 3.40625 3.40625
4.76875 2.04375 2.04375
2.04375 4.76875 2.04375
2.04375 2.04375 4.76875
4.76875 4.76875 4.76875
ITEM: TIMESTEP
4400
ITEM: NUMBER OF ATOMS
8
ITEM: BOX BOUNDS xy xz yz pp pp pp
0.0000000000000000e+00 5.5999999999999996e+00 0.0000000000000000e+00
0.0000000000000000e+00 5.5999999999999996e+00 0.0000000000000000e+00
0.0000000000000000e+00 5.5999999999999996e+00 0.0000000000000000e+00
ITEM: ATOMS x y z
0.68125 0.68125 0.68125
3.40625 3.40625 0.68125
3.40625 0.68125 3.40625
0.68125 3.40625 3.40625
4.76875 2.04375 2.04375
2.04375 4.76875 2.04375
2.04375 2.04375 4.76875
4.76875 4.76875 4.76875
ITEM: TIMESTEP
4410
ITEM: NUMBER OF ATOMS
8
ITEM: BOX BOUNDS xy xz yz pp pp pp
0.0000000000000000e+00 5.5999999999999996e+00 0.0000000000000000e+00
0.0000000000000000e+00 5.5999999999999996e+00 0.0000000000000000e+00
0.0000000000000000e+00 5.5999999999999996e+00 0.0000000000000000e+00
ITEM: ATOMS x y z
0.68125 0.68125 0.68125
3.40625 3.40625 0.68125
3.40625 0.68125 3.40625
0.68125 3.40625 3.40625
4.76875 2.04375 2.04375
2.04375 4.76875 2.04375
2.04375 2.04375 4.76875
4.76875 4.76875 4.76875
ITEM: TIMESTEP
4420
ITEM: NUMBER OF ATOMS
8
ITEM: BOX BOUNDS xy xz yz pp pp pp
0.0000000000000000e+00 5.5999999999999996e+00 0.0000000000000000e+00
0.0000000000000000e+00 5.5999999999999996e+00 0.0000000000000000e+00
0.0000000000000000e+00 5.5999999999999996e+00 0.0000000000000000e+00
ITEM: ATOMS x y z
0.68125 0.68125 0.68125
3.40625 3.40625 0.68125
3.40625 0.68125 3.40625
0.68125 3.40625 3.40625
4.76875 2.04375 2.04375
2.04375 4.76875 2.04375
2.04375 2.04375 4.76875
4.76875 4.76875 4.76875
ITEM: TIMESTEP
4430
ITEM: NUMBER OF ATOMS
8
ITEM: BOX BOUNDS xy xz yz pp pp pp
0.0000000000000000e+00 5.5999999999999996e+00 0.0000000000000000e+00
0.0000000000000000e+00 5.5999999999999996e+00 0.0000000000000000e+00
0.0000000000000000e+00 5.5999999999999996e+00 0.0000000000000000e+00
ITEM: ATOMS x y z
0.68125 0.68125 0.68125
3.40625 3.40625 0.68125
3.40625 0.68125 3.40625
0.68125 3.40625 3.40625
4.76875 2.04375 2.04375
2.04375 4.76875 2.04375
2.04375 2.04375 4.76875
4.76875 4.76875 4.76875
ITEM: TIMESTEP
4440
ITEM: NUMBER OF ATOMS
8
ITEM: BOX BOUNDS xy xz yz pp pp pp
0.0000000000000000e+00 5.5999999999999996e+00 0.0000000000000000e+00
0.0000000000000000e+00 5.5999999999999996e+00 0.0000000000000000e+00
0.0000000000000000e+00 5.5999999999999996e+00 0.0000000000000000e+00
ITEM: ATOMS x y z
0.68125 0.68125 0.68125
3.40625 3.40625 0.68125
3.40625 0.68125 3.40625
0.68125 3.40625 3.40625
4.76875 2.04375 2.04375
2.04375 4.76875 2.04375
2.04375 2.04375 4.76875
4.76875 4.76875 4.76875
ITEM: TIMESTEP
4450
ITEM: NUMBER OF ATOMS
8
ITEM: BOX BOUNDS xy xz yz pp pp pp
0.0000000000000000e+00 5.5999999999999996e+00 0.0000000000000000e+00
0.0000000000000000e+00 5.5999999999999996e+00 0.0000000000000000e+00
0.0000000000000000e+00 5.5999999999999996e+00 0.0000000000000000e+00
ITEM: ATOMS x y z
0.68125 0.68125 0.68125
3.40625 3.40625 0.68125
3.40625 0.68125 3.40625
0.68125 3.40625 3.40625
4.76875 2.04375 2.04375
2.04375 4.76875 2.04375
2.04375 2.04375 4.76875
4.76875 4.76875 4.76875
ITEM: TIMESTEP
4460
ITEM: NUMBER OF ATOMS
8
ITEM: BOX BOUNDS xy xz yz pp pp pp
0.0000000000000000e+00 5.5999999999999996e+00 0.0000000000000000e+00
0.0000000000000000e+00 5.5999999999999996e+00 0.0000000000000000e+00
0.0000000000000000e+00 5.5999999999999996e+00 0.0000000000000000e+00
ITEM: ATOMS x y z
0.68125 0.68125 0.68125
3.40625 3.40625 0.68125
3.40625 0.68125 3.40625
0.68125 3.40625 3.40625
4.76875 2.04375 2.04375
2.04375 4.76875 2.04375
2.04375 2.04375 4.76875
4.76875 4.76875 4.76875
ITEM: TIMESTEP
4470
ITEM: NUMBER OF ATOMS
8
ITEM: BOX BOUNDS xy xz yz pp pp pp
0.0000000000000000e+00 5.5999999999999996e+00 0.0000000000000000e+00
0.0000000000000000e+00 5.5999999999999996e+00 0.0000000000000000e+00
0.0000000000000000e+00 5.5999999999999996e+00 0.0000000000000000e+00
ITEM: ATOMS x y z
0.68125 0.68125 0.68125
3.40625 3.40625 0.68125
3.40625 0.68125 3.40625
0.68125 3.40625 3.40625
4.76875 2.04375 2.04375
2.04375 4.76875 2.04375
2.04375 2.04375 4.76875
4.76875 4.76875 4.76875
ITEM: TIMESTEP
4480
ITEM: NUMBER OF ATOMS
8
ITEM: BOX BOUNDS xy xz yz pp pp pp
0.0000000000000000e+00 5.5999999999999996e+00 0.0000000000000000e+00
0.0000000000000000e+00 5.5999999999999996e+00 0.0000000000000000e+00
0.0000000000000000e+00 5.5999999999999996e+00 0.0000000000000000e+00
ITEM: ATOMS x y z
0.68125 0.68125 0.68125
3.40625 3.40625 0.68125
3.40625 0.68125 3.40625
0.68125 3.40625 3.40625
4.76875 2.04375 2.04375
2.04375 4.76875 2.04375
2.04375 2.04375 4.76875
4.76875 4.76875 4.76875
ITEM: TIMESTEP
4490
ITEM: NUMBER OF ATOMS
8
ITEM: BOX BOUNDS xy xz yz pp pp pp
0.0000000000000000e+00 5.5999999999999996e+00 0.0000000000000000e+00
0.0000000000000000e+00 5.5999999999999996e+00 0.0000000000000000e+00
0.0000000000000000e+00 5.5999999999999996e+00 0.0000000000000000e+00
ITEM: ATOMS x y z
0.68125 0.68125 0.68125
3.40625 3.40625 0.68125
3.40625 0.68125 3.40625
0.68125 3.40625 3.40625
4.76875 2.04375 2.04375
2.04375 4.76875 2.04375
2.04375 2.04375 4.76875
4.76875 4.76875 4.76875
ITEM: TIMESTEP
4500
ITEM: NUMBER OF ATOMS
8
ITEM: BOX BOUNDS xy xz yz pp pp pp
0.0000000000000000e+00 5.5999999999999996e+00 0.0000000000000000e+00
0.0000000000000000e+00 5.5999999999999996e+00 0.0000000000000000e+00
0.0000000000000000e+00 5.5999999999999996e+00 0.0000000000000000e+00
ITEM: ATOMS x y z
0.68125 0.68125 0.68125
3.40625 3.40625 0.68125
3.40625 0.68125 3.40625
0.68125 3.40625 3.40625
4.76875 2.04375 2.04375
2.04375 4.76875 2.04375
2.04375 2.04375 4.76875
4.76875 4.76875 4.76875
ITEM: TIMESTEP
4510
ITEM: NUMBER OF ATOMS
8
ITEM: BOX BOUNDS xy xz yz pp pp pp
0.0000000000000000e+00 5.5999999999999996e+00 0.0000000000000000e+00
0.0000000000000000e+00 5.5999999999999996e+00 0.0000000000000000e+00
0.0000000000000000e+00 5.5999999999999996e+00 0.0000000000000000e+00
ITEM: ATOMS x y z
0.68125 0.68125 0.68125
3.40625 3.40625 0.68125
3.40625 0.68125 3.40625
0.68125 3.40625 3.40625
4.76875 2.04375 2.04375
2.04375 4.76875 2.04375
2.04375 2.04375 4.76875
4.76875 4.76875 4.76875
ITEM: TIMESTEP
4520
ITEM: NUMBER OF ATOMS
8
ITEM: BOX BOUNDS xy xz yz pp pp pp
0.0000000000000000e+00 5.5999999999999996e+00 0.0000000000000000e+00
0.0000000000000000e+00 5.5999999999999996e+00 0.0000000000000000e+00
0.0000000000000000e+00 5.5999999999999996e+00 0.0000000000000000e+00
ITEM: ATOMS x y z
0.68125 0.68125 0.68125
3.40625 3.40625 0.68125
3.40625 0.68125 3.40625
0.68125 3.40625 3.40625
4.76875 2.04375 2.04375
2.04375 4.76875 2.04375
2.04375 2.04375 4.76875
4.76875 4.76875 4.76875
ITEM: TIMESTEP
4530
ITEM: NUMBER OF ATOMS
8
ITEM: BOX BOUNDS xy xz yz pp pp pp
0.0000000000000000e+00 5.5999999999999996e+00 0.0000000000000000e+00
0.0000000000000000e+00 5.5999999999999996e+00 0.0000000000000000e+00
0.0000000000000000e+00 5.5999999999999996e+00 0.0000000000000000e+00
ITEM: ATOMS x y z
0.68125 0.68125 0.68125
3.40625 3.40625 0.68125
3.40625 0.68125 3.40625
0.68125 3.40625 3.40625
4.76875 2.04375 2.04375
2.04375 4.76875 2.04375
2.04375 2.04375 4.76875
4.76875 4.76875 4.76875
ITEM: TIMESTEP
4540
ITEM: NUMBER OF ATOMS
8
ITEM: BOX BOUNDS xy xz yz pp pp pp
0.0000000000000000e+00 5.5999999999999996e+00 0.0000000000000000e+00
0.0000000000000000e+00 5.5999999999999996e+00 0.0000000000000000e+00
0.0000000000000000e+00 5.5999999999999996e+00 0.0000000000000000e+00
ITEM: ATOMS x y z
0.68125 0.68125 0.68125
3.40625 3.40625 0.68125
3.40625 0.68125 3.40625
0.68125 3.40625 3.40625
4.76875 2.04375 2.04375
2.04375 4.76875 2.04375
2.04375 2.04375 4.76875
4.76875 4.76875 4.76875
ITEM: TIMESTEP
4550
ITEM: NUMBER OF ATOMS
8
ITEM: BOX BOUNDS xy xz yz pp pp pp
0.0000000000000000e+00 5.5999999999999996e+00 0.0000000000000000e+00
0.0000000000000000e+00 5.5999999999999996e+00 0.0000000000000000e+00
0.0000000000000000e+00 5.5999999999999996e+00 0.0000000000000000e+00
ITEM: ATOMS x y z
0.68125 0.68125 0.68125
3.40625 3.40625 0.68125
3.40625 0.68125 3.40625
0.68125 3.40625 3.40625
4.76875 2.04375 2.04375
2.04375 4.76875 2.04375
2.04375 2.04375 4.76875
4.76875 4.76875 4.76875
ITEM: TIMESTEP
4560
ITEM: NUMBER OF ATOMS
8
ITEM: BOX BOUNDS xy xz yz pp pp pp
0.0000000000000000e+00 5.5999999999999996e+00 0.0000000000000000e+00
0.0000000000000000e+00 5.5999999999999996e+00 0.0000000000000000e+00
0.0000000000000000e+00 5.5999999999999996e+00 0.0000000000000000e+00
ITEM: ATOMS x y z
0.68125 0.68125 0.68125
3.40625 3.40625 0.68125
3.40625 0.68125 3.40625
0.68125 3.40625 3.40625
4.76875 2.04375 2.04375
2.04375 4.76875 2.04375
2.04375 2.04375 4.76875
4.76875 4.76875 4.76875
ITEM: TIMESTEP
4570
ITEM: NUMBER OF ATOMS
8
ITEM: BOX BOUNDS xy xz yz pp pp pp
0.0000000000000000e+00 5.5999999999999996e+00 0.0000000000000000e+00
0.0000000000000000e+00 5.5999999999999996e+00 0.0000000000000000e+00
0.0000000000000000e+00 5.5999999999999996e+00 0.0000000000000000e+00
ITEM: ATOMS x y z
0.68125 0.68125 0.68125
3.40625 3.40625 0.68125
3.40625 0.68125 3.40625
0.68125 3.40625 3.40625
4.76875 2.04375 2.04375
2.04375 4.76875 2.04375
2.04375 2.04375 4.76875
4.76875 4.76875 4.76875
ITEM: TIMESTEP
4580
ITEM: NUMBER OF ATOMS
8
ITEM: BOX BOUNDS xy xz yz pp pp pp
0.0000000000000000e+00 5.5999999999999996e+00 0.0000000000000000e+00
0.0000000000000000e+00 5.5999999999999996e+00 0.0000000000000000e+00
0.0000000000000000e+00 5.5999999999999996e+00 0.0000000000000000e+00
ITEM: ATOMS x y z
0.68125 0.68125 0.68125
3.40625 3.40625 0.68125
3.40625 0.68125 3.40625
0.68125 3.40625 3.40625
4.76875 2.04375 2.04375
2.04375 4.76875 2.04375
2.04375 2.04375 4.76875
4.76875 4.76875 4.76875
ITEM: TIMESTEP
4590
ITEM: NUMBER OF ATOMS
8
ITEM: BOX BOUNDS xy xz yz pp pp pp
0.0000000000000000e+00 5.5999999999999996e+00 0.0000000000000000e+00
0.0000000000000000e+00 5.5999999999999996e+00 0.0000000000000000e+00
0.0000000000000000e+00 5.5999999999999996e+00 0.0000000000000000e+00
ITEM: ATOMS x y z
0.68125 0.68125 0.68125
3.40625 3.40625 0.68125
3.40625 0.68125 3.40625
0.68125 3.40625 3.40625
4.76875 2.04375 2.04375
2.04375 4.76875 2.04375
2.04375 2.04375 4.76875
4.76875 4.76875 4.76875
ITEM: TIMESTEP
4600
ITEM: NUMBER OF ATOMS
8
ITEM: BOX BOUNDS xy xz yz pp pp pp
0.0000000000000000e+00 5.5999999999999996e+00 0.0000000000000000e+00
0.0000000000000000e+00 5.5999999999999996e+00 0.0000000000000000e+00
0.0000000000000000e+00 5.5999999999999996e+00 0.0000000000000000e+00
ITEM: ATOMS x y z
0.68125 0.68125 0.68125
3.40625 3.40625 0.68125
3.40625 0.68125 3.40625
0.68125 3.40625 3.40625
4.76875 2.04375 2.04375
2.04375 4.76875 2.04375
2.04375 2.04375 4.76875
4.76875 4.76875 4.76875
ITEM: TIMESTEP
4610
ITEM: NUMBER OF ATOMS
8
ITEM: BOX BOUNDS xy xz yz pp pp pp
0.0000000000000000e+00 5.5999999999999996e+00 0.0000000000000000e+00
0.0000000000000000e+00 5.5999999999999996e+00 0.0000000000000000e+00
0.0000000000000000e+00 5.5999999999999996e+00 0.0000000000000000e+00
ITEM: ATOMS x y z
0.68125 0.68125 0.68125
3.40625 3.40625 0.68125
3.40625 0.68125 3.40625
0.68125 3.40625 3.40625
4.76875 2.04375 2.04375
2.04375 4.76875 2.04375
2.04375 2.04375 4.76875
4.76875 4.76875 4.76875
ITEM: TIMESTEP
4620
ITEM: NUMBER OF ATOMS
8
ITEM: BOX BOUNDS xy xz yz pp pp pp
0.0000000000000000e+00 5.5999999999999996e+00 0.0000000000000000e+00
0.0000000000000000e+00 5.5999999999999996e+00 0.0000000000000000e+00
0.0000000000000000e+00 5.5999999999999996e+00 0.0000000000000000e+00
ITEM: ATOMS x y z
0.68125 0.68125 0.68125
3.40625 3.40625 0.68125
3.40625 0.68125 3.40625
0.68125 3.40625 3.40625
4.76875 2.04375 2.04375
2.04375 4.76875 2.04375
2.04375 2.04375 4.76875
4.76875 4.76875 4.76875
ITEM: TIMESTEP
4630
ITEM: NUMBER OF ATOMS
8
ITEM: BOX BOUNDS xy xz yz pp pp pp
0.0000000000000000e+00 5.5999999999999996e+00 0.0000000000000000e+00
0.0000000000000000e+00 5.5999999999999996e+00 0.0000000000000000e+00
0.0000000000000000e+00 5.5999999999999996e+00 0.0000000000000000e+00
ITEM: ATOMS x y z
0.68125 0.68125 0.68125
3.40625 3.40625 0.68125
3.40625 0.68125 3.40625
0.68125 3.40625 3.40625
4.76875 2.04375 2.04375
2.04375 4.76875 2.04375
2.04375 2.04375 4.76875
4.76875 4.76875 4.76875
ITEM: TIMESTEP
4640
ITEM: NUMBER OF ATOMS
8
ITEM: BOX BOUNDS xy xz yz pp pp pp
0.0000000000000000e+00 5.5999999999999996e+00 0.0000000000000000e+00
0.0000000000000000e+00 5.5999999999999996e+00 0.0000000000000000e+00
0.0000000000000000e+00 5.5999999999999996e+00 0.0000000000000000e+00
ITEM: ATOMS x y z
0.68125 0.68125 0.68125
3.40625 3.40625 0.68125
3.40625 0.68125 3.40625
0.68125 3.40625 3.40625
4.76875 2.04375 2.04375
2.04375 4.76875 2.04375
2.04375 2.04375 4.76875
4.76875 4.76875 4.76875
ITEM: TIMESTEP
4650
ITEM: NUMBER OF ATOMS
8
ITEM: BOX BOUNDS xy xz yz pp pp pp
0.0000000000000000e+00 5.5999999999999996e+00 0.0000000000000000e+00
0.0000000000000000e+00 5.5999999999999996e+00 0.0000000000000000e+00
0.0000000000000000e+00 5.5999999999999996e+00 0.0000000000000000e+00
ITEM: ATOMS x y z
0.68125 0.68125 0.68125
3.40625 3.40625 0.68125
3.40625 0.68125 3.40625
0.68125 3.40625 3.40625
4.76875 2.04375 2.04375
2.04375 4.76875 2.04375
2.04375 2.04375 4.76875
4.76875 4.76875 4.76875
ITEM: TIMESTEP
4660
ITEM: NUMBER OF ATOMS
8
ITEM: BOX BOUNDS xy xz yz pp pp pp
0.0000000000000000e+00 5.5999999999999996e+00 0.0000000000000000e+00
0.0000000000000000e+00 5.5999999999999996e+00 0.0000000000000000e+00
0.0000000000000000e+00 5.5999999999999996e+00 0.0000000000000000e+00
ITEM: ATOMS x y z
0.68125 0.68125 0.68125
3.40625 3.40625 0.68125
3.40625 0.68125 3.40625
0.68125 3.40625 3.40625
4.76875 2.04375 2.04375
2.04375 4.76875 2.04375
2.04375 2.04375 4.76875
4.76875 4.76875 4.76875
ITEM: TIMESTEP
4670
ITEM: NUMBER OF ATOMS
8
ITEM: BOX BOUNDS xy xz yz pp pp pp
0.0000000000000000e+00 5.5999999999999996e+00 0.0000000000000000e+00
0.0000000000000000e+00 5.5999999999999996e+00 0.0000000000000000e+00
0.0000000000000000e+00 5.5999999999999996e+00 0.0000000000000000e+00
ITEM: ATOMS x y z
0.68125 0.68125 0.68125
3.40625 3.40625 0.68125
3.40625 0.68125 3.40625
0.68125 3.40625 3.40625
4.76875 2.04375 2.04375
2.04375 4.76875 2.04375
2.04375 2.04375 4.76875
4.76875 4.76875 4.76875
ITEM: TIMESTEP
4680
ITEM: NUMBER OF ATOMS
8
ITEM: BOX BOUNDS xy xz yz pp pp pp
0.0000000000000000e+00 5.5999999999999996e+00 0.0000000000000000e+00
0.0000000000000000e+00 5.5999999999999996e+00 0.0000000000000000e+00
0.0000000000000000e+00 5.5999999999999996e+00 0.0000000000000000e+00
ITEM: ATOMS x y z
0.68125 0.68125 0.68125
3.40625 3.40625 0.68125
3.40625 0.68125 3.40625
0.68125 3.40625 3.40625
4.76875 2.04375 2.04375
2.04375 4.76875 2.04375
2.04375 2.04375 4.76875
4.76875 4.76875 4.76875
ITEM: TIMESTEP
4690
ITEM: NUMBER OF ATOMS
8
ITEM: BOX BOUNDS xy xz yz pp pp pp
0.0000000000000000e+00 5.5999999999999996e+00 0.0000000000000000e+00
0.0000000000000000e+00 5.5999999999999996e+00 0.0000000000000000e+00
0.0000000000000000e+00 5.5999999999999996e+00 0.0000000000000000e+00
ITEM: ATOMS x y z
0.68125 0.68125 0.68125
3.40625 3.40625 0.68125
3.40625 0.68125 3.40625
0.68125 3.40625 3.40625
4.76875 2.04375 2.04375
2.04375 4.76875 2.04375
2.04375 2.04375 4.76875
4.76875 4.76875 4.76875
ITEM: TIMESTEP
4700
ITEM: NUMBER OF ATOMS
8
ITEM: BOX BOUNDS xy xz yz pp pp pp
0.0000000000000000e+00 5.5999999999999996e+00 0.0000000000000000e+00
0.0000000000000000e+00 5.5999999999999996e+00 0.0000000000000000e+00
0.0000000000000000e+00 5.5999999999999996e+00 0.0000000000000000e+00
ITEM: ATOMS x y z
0.68125 0.68125 0.68125
3.40625 3.40625 0.68125
3.40625 0.68125 3.40625
0.68125 3.40625 3.40625
4.76875 2.04375 2.04375
2.04375 4.76875 2.04375
2.04375 2.04375 4.76875
4.76875 4.76875 4.76875
ITEM: TIMESTEP
4710
ITEM: NUMBER OF ATOMS
8
ITEM: BOX BOUNDS xy xz yz pp pp pp
0.0000000000000000e+00 5.5999999999999996e+00 0.0000000000000000e+00
0.0000000000000000e+00 5.5999999999999996e+00 0.0000000000000000e+00
0.0000000000000000e+00 5.5999999999999996e+00 0.0000000000000000e+00
ITEM: ATOMS x y z
0.68125 0.68125 0.68125
3.40625 3.40625 0.68125
3.40625 0.68125 3.40625
0.68125 3.40625 3.40625
4.76875 2.04375 2.04375
2.04375 4.76875 2.04375
2.04375 2.04375 4.76875
4.76875 4.76875 4.76875
ITEM: TIMESTEP
4720
ITEM: NUMBER OF ATOMS
8
ITEM: BOX BOUNDS xy xz yz pp pp pp
0.0000000000000000e+00 5.5999999999999996e+00 0.0000000000000000e+00
0.0000000000000000e+00 5.5999999999999996e+00 0.0000000000000000e+00
0.0000000000000000e+00 5.5999999999999996e+00 0.0000000000000000e+00
ITEM: ATOMS x y z
0.68125 0.68125 0.68125
3.40625 3.40625 0.68125
3.40625 0.68125 3.40625
0.68125 3.40625 3.40625
4.76875 2.04375 2.04375
2.04375 4.76875 2.04375
2.04375 2.04375 4.76875
4.76875 4.76875 4.76875
ITEM: TIMESTEP
4730
ITEM: NUMBER OF ATOMS
8
ITEM: BOX BOUNDS xy xz yz pp pp pp
0.0000000000000000e+00 5.5999999999999996e+00 0.0000000000000000e+00
0.0000000000000000e+00 5.5999999999999996e+00 0.0000000000000000e+00
0.0000000000000000e+00 5.5999999999999996e+00 0.0000000000000000e+00
ITEM: ATOMS x y z
0.68125 0.68125 0.68125
3.40625 3.40625 0.68125
3.40625 0.68125 3.40625
0.68125 3.40625 3.40625
4.76875 2.04375 2.04375
2.04375 4.76875 2.04375
2.04375 2.04375 4.76875
4.76875 4.76875 4.76875
ITEM: TIMESTEP
4740
ITEM: NUMBER OF ATOMS
8
ITEM: BOX BOUNDS xy xz yz pp pp pp
0.0000000000000000e+00 5.5999999999999996e+00 0.0000000000000000e+00
0.0000000000000000e+00 5.5999999999999996e+00 0.0000000000000000e+00
0.0000000000000000e+00 5.5999999999999996e+00 0.0000000000000000e+00
ITEM: ATOMS x y z
0.68125 0.68125 0.68125
3.40625 3.40625 0.68125
3.40625 0.68125 3.40625
0.68125 3.40625 3.40625
4.76875 2.04375 2.04375
2.04375 4.76875 2.04375
2.04375 2.04375 4.76875
4.76875 4.76875 4.76875
ITEM: TIMESTEP
4750
ITEM: NUMBER OF ATOMS
8
ITEM: BOX BOUNDS xy xz yz pp pp pp
0.0000000000000000e+00 5.5999999999999996e+00 0.0000000000000000e+00
0.0000000000000000e+00 5.5999999999999996e+00 0.0000000000000000e+00
0.0000000000000000e+00 5.5999999999999996e+00 0.0000000000000000e+00
ITEM: ATOMS x y z
0.68125 0.68125 0.68125
3.40625 3.40625 0.68125
3.40625 0.68125 3.40625
0.68125 3.40625 3.40625
4.76875 2.04375 2.04375
2.04375 4.76875 2.04375
2.04375 2.04375 4.76875
4.76875 4.76875 4.76875
ITEM: TIMESTEP
4760
ITEM: NUMBER OF ATOMS
8
ITEM: BOX BOUNDS xy xz yz pp pp pp
0.0000000000000000e+00 5.5999999999999996e+00 0.0000000000000000e+00
0.0000000000000000e+00 5.5999999999999996e+00 0.0000000000000000e+00
0.0000000000000000e+00 5.5999999999999996e+00 0.0000000000000000e+00
ITEM: ATOMS x y z
0.68125 0.68125 0.68125
3.40625 3.40625 0.68125
3.40625 0.68125 3.40625
0.68125 3.40625 3.40625
4.76875 2.04375 2.04375
2.04375 4.76875 2.04375
2.04375 2.04375 4.76875
4.76875 4.76875 4.76875
ITEM: TIMESTEP
4770
ITEM: NUMBER OF ATOMS
8
ITEM: BOX BOUNDS xy xz yz pp pp pp
0.0000000000000000e+00 5.5999999999999996e+00 0.0000000000000000e+00
0.0000000000000000e+00 5.5999999999999996e+00 0.0000000000000000e+00
0.0000000000000000e+00 5.5999999999999996e+00 0.0000000000000000e+00
ITEM: ATOMS x y z
0.68125 0.68125 0.68125
3.40625 3.40625 0.68125
3.40625 0.68125 3.40625
0.68125 3.40625 3.40625
4.76875 2.04375 2.04375
2.04375 4.76875 2.04375
2.04375 2.04375 4.76875
4.76875 4.76875 4.76875
ITEM: TIMESTEP
4780
ITEM: NUMBER OF ATOMS
8
ITEM: BOX BOUNDS xy xz yz pp pp pp
0.0000000000000000e+00 5.5999999999999996e+00 0.0000000000000000e+00
0.0000000000000000e+00 5.5999999999999996e+00 0.0000000000000000e+00
0.0000000000000000e+00 5.5999999999999996e+00 0.0000000000000000e+00
ITEM: ATOMS x y z
0.68125 0.68125 0.68125
3.40625 3.40625 0.68125
3.40625 0.68125 3.40625
0.68125 3.40625 3.40625
4.76875 2.04375 2.04375
2.04375 4.76875 2.04375
2.04375 2.04375 4.76875
4.76875 4.76875 4.76875
ITEM: TIMESTEP
4790
ITEM: NUMBER OF ATOMS
8
ITEM: BOX BOUNDS xy xz yz pp pp pp
0.0000000000000000e+00 5.5999999999999996e+00 0.0000000000000000e+00
0.0000000000000000e+00 5.5999999999999996e+00 0.0000000000000000e+00
0.0000000000000000e+00 5.5999999999999996e+00 0.0000000000000000e+00
ITEM: ATOMS x y z
0.68125 0.68125 0.68125
3.40625 3.40625 0.68125
3.40625 0.68125 3.40625
0.68125 3.40625 3.40625
4.76875 2.04375 2.04375
2.04375 4.76875 2.04375
2.04375 2.04375 4.76875
4.76875 4.76875 4.76875
ITEM: TIMESTEP
4800
ITEM: NUMBER OF ATOMS
8
ITEM: BOX BOUNDS xy xz yz pp pp pp
0.0000000000000000e+00 5.5999999999999996e+00 0.0000000000000000e+00
0.0000000000000000e+00 5.5999999999999996e+00 0.0000000000000000e+00
0.0000000000000000e+00 5.5999999999999996e+00 0.0000000000000000e+00
ITEM: ATOMS x y z
0.68125 0.68125 0.68125
3.40625 3.40625 0.68125
3.40625 0.68125 3.40625
0.68125 3.40625 3.40625
4.76875 2.04375 2.04375
2.04375 4.76875 2.04375
2.04375 2.04375 4.76875
4.76875 4.76875 4.76875
ITEM: TIMESTEP
4810
ITEM: NUMBER OF ATOMS
8
ITEM: BOX BOUNDS xy xz yz pp pp pp
0.0000000000000000e+00 5.5999999999999996e+00 0.0000000000000000e+00
0.0000000000000000e+00 5.5999999999999996e+00 0.0000000000000000e+00
0.0000000000000000e+00 5.5999999999999996e+00 0.0000000000000000e+00
ITEM: ATOMS x y z
0.68125 0.68125 0.68125
3.40625 3.40625 0.68125
3.40625 0.68125 3.40625
0.68125 3.40625 3.40625
4.76875 2.04375 2.04375
2.04375 4.76875 2.04375
2.04375 2.04375 4.76875
4.76875 4.76875 4.76875
ITEM: TIMESTEP
4820
ITEM: NUMBER OF ATOMS
8
ITEM: BOX BOUNDS xy xz yz pp pp pp
0.0000000000000000e+00 5.5999999999999996e+00 0.0000000000000000e+00
0.0000000000000000e+00 5.5999999999999996e+00 0.0000000000000000e+00
0.0000000000000000e+00 5.5999999999999996e+00 0.0000000000000000e+00
ITEM: ATOMS x y z
0.68125 0.68125 0.68125
3.40625 3.40625 0.68125
3.40625 0.68125 3.40625
0.68125 3.40625 3.40625
4.76875 2.04375 2.04375
2.04375 4.76875 2.04375
2.04375 2.04375 4.76875
4.76875 4.76875 4.76875
ITEM: TIMESTEP
4830
ITEM: NUMBER OF ATOMS
8
ITEM: BOX BOUNDS xy xz yz pp pp pp
0.0000000000000000e+00 5.5999999999999996e+00 0.0000000000000000e+00
0.0000000000000000e+00 5.5999999999999996e+00 0.0000000000000000e+00
0.0000000000000000e+00 5.5999999999999996e+00 0.0000000000000000e+00
ITEM: ATOMS x y z
0.68125 0.68125 0.68125
3.40625 3.40625 0.68125
3.40625 0.68125 3.40625
0.68125 3.40625 3.40625
4.76875 2.04375 2.04375
2.04375 4.76875 2.04375
2.04375 2.04375 4.76875
4.76875 4.76875 4.76875
ITEM: TIMESTEP
4840
ITEM: NUMBER OF ATOMS
8
ITEM: BOX BOUNDS xy xz yz pp pp pp
0.0000000000000000e+00 5.5999999999999996e+00 0.0000000000000000e+00
0.0000000000000000e+00 5.5999999999999996e+00 0.0000000000000000e+00
0.0000000000000000e+00 5.5999999999999996e+00 0.0000000000000000e+00
ITEM: ATOMS x y z
0.68125 0.68125 0.68125
3.40625 3.40625 0.68125
3.40625 0.68125 3.40625
0.68125 3.40625 3.40625
4.76875 2.04375 2.04375
2.04375 4.76875 2.04375
2.04375 2.04375 4.76875
4.76875 4.76875 4.76875
ITEM: TIMESTEP
4850
ITEM: NUMBER OF ATOMS
8
ITEM: BOX BOUNDS xy xz yz pp pp pp
0.0000000000000000e+00 5.5999999999999996e+00 0.0000000000000000e+00
0.0000000000000000e+00 5.5999999999999996e+00 0.0000000000000000e+00
0.0000000000000000e+00 5.5999999999999996e+00 0.0000000000000000e+00
ITEM: ATOMS x y z
0.68125 0.68125 0.68125
3.40625 3.40625 0.68125
3.40625 0.68125 3.40625
0.68125 3.40625 3.40625
4.76875 2.04375 2.04375
2.04375 4.76875 2.04375
2.04375 2.04375 4.76875
4.76875 4.76875 4.76875
ITEM: TIMESTEP
4860
ITEM: NUMBER OF ATOMS
8
ITEM: BOX BOUNDS xy xz yz pp pp pp
0.0000000000000000e+00 5.5999999999999996e+00 0.0000000000000000e+00
0.0000000000000000e+00 5.5999999999999996e+00 0.0000000000000000e+00
0.0000000000000000e+00 5.5999999999999996e+00 0.0000000000000000e+00
ITEM: ATOMS x y z
0.68125 0.68125 0.68125
3.40625 3.40625 0.68125
3.40625 0.68125 3.40625
0.68125 3.40625 3.40625
4.76875 2.04375 2.04375
2.04375 4.76875 2.04375
2.04375 2.04375 4.76875
4.76875 4.76875 4.76875
ITEM: TIMESTEP
4870
ITEM: NUMBER OF ATOMS
8
ITEM: BOX BOUNDS xy xz yz pp pp pp
0.0000000000000000e+00 5.5999999999999996e+00 0.0000000000000000e+00
0.0000000000000000e+00 5.5999999999999996e+00 0.0000000000000000e+00
0.0000000000000000e+00 5.5999999999999996e+00 0.0000000000000000e+00
ITEM: ATOMS x y z
0.68125 0.68125 0.68125
3.40625 3.40625 0.68125
3.40625 0.68125 3.40625
0.68125 3.40625 3.40625
4.76875 2.04375 2.04375
2.04375 4.76875 2.04375
2.04375 2.04375 4.76875
4.76875 4.76875 4.76875
ITEM: TIMESTEP
4880
ITEM: NUMBER OF ATOMS
8
ITEM: BOX BOUNDS xy xz yz pp pp pp
0.0000000000000000e+00 5.5999999999999996e+00 0.0000000000000000e+00
0.0000000000000000e+00 5.5999999999999996e+00 0.0000000000000000e+00
0.0000000000000000e+00 5.5999999999999996e+00 0.0000000000000000e+00
ITEM: ATOMS x y z
0.68125 0.68125 0.68125
3.40625 3.40625 0.68125
3.40625 0.68125 3.40625
0.68125 3.40625 3.40625
4.76875 2.04375 2.04375
2.04375 4.76875 2.04375
2.04375 2.04375 4.76875
4.76875 4.76875 4.76875
ITEM: TIMESTEP
4890
ITEM: NUMBER OF ATOMS
8
ITEM: BOX BOUNDS xy xz yz pp pp pp
0.0000000000000000e+00 5.5999999999999996e+00 0.0000000000000000e+00
0.0000000000000000e+00 5.5999999999999996e+00 0.0000000000000000e+00
0.0000000000000000e+00 5.5999999999999996e+00 0.0000000000000000e+00
ITEM: ATOMS x y z
0.68125 0.68125 0.68125
3.40625 3.40625 0.68125
3.40625 0.68125 3.40625
0.68125 3.40625 3.40625
4.76875 2.04375 2.04375
2.04375 4.76875 2.04375
2.04375 2.04375 4.76875
4.76875 4.76875 4.76875
ITEM: TIMESTEP
4900
ITEM: NUMBER OF ATOMS
8
ITEM: BOX BOUNDS xy xz yz pp pp pp
0.0000000000000000e+00 5.5999999999999996e+00 0.0000000000000000e+00
0.0000000000000000e+00 5.5999999999999996e+00 0.0000000000000000e+00
0.0000000000000000e+00 5.5999999999999996e+00 0.0000000000000000e+00
ITEM: ATOMS x y z
0.68125 0.68125 0.68125
3.40625 3.40625 0.68125
3.40625 0.68125 3.40625
0.68125 3.40625 3.40625
4.76875 2.04375 2.04375
2.04375 4.76875 2.04375
2.04375 2.04375 4.76875
4.76875 4.76875 4.76875
ITEM: TIMESTEP
4910
ITEM: NUMBER OF ATOMS
8
ITEM: BOX BOUNDS xy xz yz pp pp pp
0.0000000000000000e+00 5.5999999999999996e+00 0.0000000000000000e+00
0.0000000000000000e+00 5.5999999999999996e+00 0.0000000000000000e+00
0.0000000000000000e+00 5.5999999999999996e+00 0.0000000000000000e+00
ITEM: ATOMS x y z
0.68125 0.68125 0.68125
3.40625 3.40625 0.68125
3.40625 0.68125 3.40625
0.68125 3.40625 3.40625
4.76875 2.04375 2.04375
2.04375 4.76875 2.04375
2.04375 2.04375 4.76875
4.76875 4.76875 4.76875
ITEM: TIMESTEP
4920
ITEM: NUMBER OF ATOMS
8
ITEM: BOX BOUNDS xy xz yz pp pp pp
0.0000000000000000e+00 5.5999999999999996e+00 0.0000000000000000e+00
0.0000000000000000e+00 5.5999999999999996e+00 0.0000000000000000e+00
0.0000000000000000e+00 5.5999999999999996e+00 0.0000000000000000e+00
ITEM: ATOMS x y z
0.68125 0.68125 0.68125
3.40625 3.40625 0.68125
3.40625 0.68125 3.40625
0.68125 3.40625 3.40625
4.76875 2.04375 2.04375
2.04375 4.76875 2.04375
2.04375 2.04375 4.76875
4.76875 4.76875 4.76875
ITEM: TIMESTEP
4930
ITEM: NUMBER OF ATOMS
8
ITEM: BOX BOUNDS xy xz yz pp pp pp
0.0000000000000000e+00 5.5999999999999996e+00 0.0000000000000000e+00
0.0000000000000000e+00 5.5999999999999996e+00 0.0000000000000000e+00
0.0000000000000000e+00 5.5999999999999996e+00 0.0000000000000000e+00
ITEM: ATOMS x y z
0.68125 0.68125 0.68125
3.40625 3.40625 0.68125
3.40625 0.68125 3.40625
0.68125 3.40625 3.40625
4.76875 2.04375 2.04375
2.04375 4.76875 2.04375
2.04375 2.04375 4.76875
4.76875 4.76875 4.76875
ITEM: TIMESTEP
4940
ITEM: NUMBER OF ATOMS
8
ITEM: BOX BOUNDS xy xz yz pp pp pp
0.0000000000000000e+00 5.5999999999999996e+00 0.0000000000000000e+00
0.0000000000000000e+00 5.5999999999999996e+00 0.0000000000000000e+00
0.0000000000000000e+00 5.5999999999999996e+00 0.0000000000000000e+00
ITEM: ATOMS x y z
0.68125 0.68125 0.68125
3.40625 3.40625 0.68125
3.40625 0.68125 3.40625
0.68125 3.40625 3.40625
4.76875 2.04375 2.04375
2.04375 4.76875 2.04375
2.04375 2.04375 4.76875
4.76875 4.76875 4.76875
ITEM: TIMESTEP
4950
ITEM: NUMBER OF ATOMS
8
ITEM: BOX BOUNDS xy xz yz pp pp pp
0.0000000000000000e+00 5.5999999999999996e+00 0.0000000000000000e+00
0.0000000000000000e+00 5.5999999999999996e+00 0.0000000000000000e+00
0.0000000000000000e+00 5.5999999999999996e+00 0.0000000000000000e+00
ITEM: ATOMS x y z
0.68125 0.68125 0.68125
3.40625 3.40625 0.68125
3.40625 0.68125 3.40625
0.68125 3.40625 3.40625
4.76875 2.04375 2.04375
2.04375 4.76875 2.04375
2.04375 2.04375 4.76875
4.76875 4.76875 4.76875
ITEM: TIMESTEP
4960
ITEM: NUMBER OF ATOMS
8
ITEM: BOX BOUNDS xy xz yz pp pp pp
0.0000000000000000e+00 5.5999999999999996e+00 0.0000000000000000e+00
0.0000000000000000e+00 5.5999999999999996e+00 0.0000000000000000e+00
0.0000000000000000e+00 5.5999999999999996e+00 0.0000000000000000e+00
ITEM: ATOMS x y z
0.68125 0.68125 0.68125
3.40625 3.40625 0.68125
3.40625 0.68125 3.40625
0.68125 3.40625 3.40625
4.76875 2.04375 2.04375
2.04375 4.76875 2.04375
2.04375 2.04375 4.76875
4.76875 4.76875 4.76875
ITEM: TIMESTEP
4970
ITEM: NUMBER OF ATOMS
8
ITEM: BOX BOUNDS xy xz yz pp pp pp
0.0000000000000000e+00 5.5999999999999996e+00 0.0000000000000000e+00
0.0000000000000000e+00 5.5999999999999996e+00 0.0000000000000000e+00
0.0000000000000000e+00 5.5999999999999996e+00 0.0000000000000000e+00
ITEM: ATOMS x y z
0.68125 0.68125 0.68125
3.40625 3.40625 0.68125
3.40625 0.68125 3.40625
0.68125 3.40625 3.40625
4.76875 2.04375 2.04375
2.04375 4.76875 2.04375
2.04375 2.04375 4.76875
4.76875 4.76875 4.76875
ITEM: TIMESTEP
4980
ITEM: NUMBER OF ATOMS
8
ITEM: BOX BOUNDS xy xz yz pp pp pp
0.0000000000000000e+00 5.5999999999999996e+00 0.0000000000000000e+00
0.0000000000000000e+00 5.5999999999999996e+00 0.0000000000000000e+00
0.0000000000000000e+00 5.5999999999999996e+00 0.0000000000000000e+00
ITEM: ATOMS x y z
0.68125 0.68125 0.68125
3.40625 3.40625 0.68125
3.40625 0.68125 3.40625
0.68125 3.40625 3.40625
4.76875 2.04375 2.04375
2.04375 4.76875 2.04375
2.04375 2.04375 4.76875
4.76875 4.76875 4.76875
ITEM: TIMESTEP
4990
ITEM: NUMBER OF ATOMS
8
ITEM: BOX BOUNDS xy xz yz pp pp pp
0.0000000000000000e+00 5.5999999999999996e+00 0.0000000000000000e+00
0.0000000000000000e+00 5.5999999999999996e+00 0.0000000000000000e+00
0.0000000000000000e+00 5.5999999999999996e+00 0.0000000000000000e+00
ITEM: ATOMS x y z
0.68125 0.68125 0.68125
3.40625 3.40625 0.68125
3.40625 0.68125 3.40625
0.68125 3.40625 3.40625
4.76875 2.04375 2.04375
2.04375 4.76875 2.04375
2.04375 2.04375 4.76875
4.76875 4.76875 4.76875
ITEM: TIMESTEP
5000
ITEM: NUMBER OF ATOMS
8
ITEM: BOX BOUNDS xy xz yz pp pp pp
0.0000000000000000e+00 5.5999999999999996e+00 0.0000000000000000e+00
0.0000000000000000e+00 5.5999999999999996e+00 0.0000000000000000e+00
0.0000000000000000e+00 5.5999999999999996e+00 0.0000000000000000e+00
ITEM: ATOMS x y z
0.68125 0.68125 0.68125
3.40625 3.40625 0.68125
3.40625 0.68125 3.40625
0.68125 3.40625 3.40625
4.76875 2.04375 2.04375
2.04375 4.76875 2.04375
2.04375 2.04375 4.76875
4.76875 4.76875 4.76875
ITEM: TIMESTEP
5010
ITEM: NUMBER OF ATOMS
8
ITEM: BOX BOUNDS xy xz yz pp pp pp
0.0000000000000000e+00 5.5999999999999996e+00 0.0000000000000000e+00
0.0000000000000000e+00 5.5999999999999996e+00 0.0000000000000000e+00
0.0000000000000000e+00 5.5999999999999996e+00 0.0000000000000000e+00
ITEM: ATOMS x y z
0.68125 0.68125 0.68125
3.40625 3.40625 0.68125
3.40625 0.68125 3.40625
0.68125 3.40625 3.40625
4.76875 2.04375 2.04375
2.04375 4.76875 2.04375
2.04375 2.04375 4.76875
4.76875 4.76875 4.76875
ITEM: TIMESTEP
5020
ITEM: NUMBER OF ATOMS
8
ITEM: BOX BOUNDS xy xz yz pp pp pp
0.0000000000000000e+00 5.5999999999999996e+00 0.0000000000000000e+00
0.0000000000000000e+00 5.5999999999999996e+00 0.0000000000000000e+00
0.0000000000000000e+00 5.5999999999999996e+00 0.0000000000000000e+00
ITEM: ATOMS x y z
0.68125 0.68125 0.68125
3.40625 3.40625 0.68125
3.40625 0.68125 3.40625
0.68125 3.40625 3.40625
4.76875 2.04375 2.04375
2.04375 4.76875 2.04375
2.04375 2.04375 4.76875
4.76875 4.76875 4.76875
ITEM: TIMESTEP
5030
ITEM: NUMBER OF ATOMS
8
ITEM: BOX BOUNDS xy xz yz pp pp pp
0.0000000000000000e+00 5.5999999999999996e+00 0.0000000000000000e+00
0.0000000000000000e+00 5.5999999999999996e+00 0.0000000000000000e+00
0.0000000000000000e+00 5.5999999999999996e+00 0.0000000000000000e+00
ITEM: ATOMS x y z
0.68125 0.68125 0.68125
3.40625 3.40625 0.68125
3.40625 0.68125 3.40625
0.68125 3.40625 3.40625
4.76875 2.04375 2.04375
2.04375 4.76875 2.04375
2.04375 2.04375 4.76875
4.76875 4.76875 4.76875
ITEM: TIMESTEP
5040
ITEM: NUMBER OF ATOMS
8
ITEM: BOX BOUNDS xy xz yz pp pp pp
0.0000000000000000e+00 5.5999999999999996e+00 0.0000000000000000e+00
0.0000000000000000e+00 5.5999999999999996e+00 0.0000000000000000e+00
0.0000000000000000e+00 5.5999999999999996e+00 0.0000000000000000e+00
ITEM: ATOMS x y z
0.68125 0.68125 0.68125
3.40625 3.40625 0.68125
3.40625 0.68125 3.40625
0.68125 3.40625 3.40625
4.76875 2.04375 2.04375
2.04375 4.76875 2.04375
2.04375 2.04375 4.76875
4.76875 4.76875 4.76875
ITEM: TIMESTEP
5050
ITEM: NUMBER OF ATOMS
8
ITEM: BOX BOUNDS xy xz yz pp pp pp
0.0000000000000000e+00 5.5999999999999996e+00 0.0000000000000000e+00
0.0000000000000000e+00 5.5999999999999996e+00 0.0000000000000000e+00
0.0000000000000000e+00 5.5999999999999996e+00 0.0000000000000000e+00
ITEM: ATOMS x y z
0.68125 0.68125 0.68125
3.40625 3.40625 0.68125
3.40625 0.68125 3.40625
0.68125 3.40625 3.40625
4.76875 2.04375 2.04375
2.04375 4.76875 2.04375
2.04375 2.04375 4.76875
4.76875 4.76875 4.76875
ITEM: TIMESTEP
5060
ITEM: NUMBER OF ATOMS
8
ITEM: BOX BOUNDS xy xz yz pp pp pp
0.0000000000000000e+00 5.5999999999999996e+00 0.0000000000000000e+00
0.0000000000000000e+00 5.5999999999999996e+00 0.0000000000000000e+00
0.0000000000000000e+00 5.5999999999999996e+00 0.0000000000000000e+00
ITEM: ATOMS x y z
0.68125 0.68125 0.68125
3.40625 3.40625 0.68125
3.40625 0.68125 3.40625
0.68125 3.40625 3.40625
4.76875 2.04375 2.04375
2.04375 4.76875 2.04375
2.04375 2.04375 4.76875
4.76875 4.76875 4.76875
ITEM: TIMESTEP
5070
ITEM: NUMBER OF ATOMS
8
ITEM: BOX BOUNDS xy xz yz pp pp pp
0.0000000000000000e+00 5.5999999999999996e+00 0.0000000000000000e+00
0.0000000000000000e+00 5.5999999999999996e+00 0.0000000000000000e+00
0.0000000000000000e+00 5.5999999999999996e+00 0.0000000000000000e+00
ITEM: ATOMS x y z
0.68125 0.68125 0.68125
3.40625 3.40625 0.68125
3.40625 0.68125 3.40625
0.68125 3.40625 3.40625
4.76875 2.04375 2.04375
2.04375 4.76875 2.04375
2.04375 2.04375 4.76875
4.76875 4.76875 4.76875
ITEM: TIMESTEP
5080
ITEM: NUMBER OF ATOMS
8
ITEM: BOX BOUNDS xy xz yz pp pp pp
0.0000000000000000e+00 5.5999999999999996e+00 0.0000000000000000e+00
0.0000000000000000e+00 5.5999999999999996e+00 0.0000000000000000e+00
0.0000000000000000e+00 5.5999999999999996e+00 0.0000000000000000e+00
ITEM: ATOMS x y z
0.68125 0.68125 0.68125
3.40625 3.40625 0.68125
3.40625 0.68125 3.40625
0.68125 3.40625 3.40625
4.76875 2.04375 2.04375
2.04375 4.76875 2.04375
2.04375 2.04375 4.76875
4.76875 4.76875 4.76875
ITEM: TIMESTEP
5090
ITEM: NUMBER OF ATOMS
8
ITEM: BOX BOUNDS xy xz yz pp pp pp
0.0000000000000000e+00 5.5999999999999996e+00 0.0000000000000000e+00
0.0000000000000000e+00 5.5999999999999996e+00 0.0000000000000000e+00
0.0000000000000000e+00 5.5999999999999996e+00 0.0000000000000000e+00
ITEM: ATOMS x y z
0.68125 0.68125 0.68125
3.40625 3.40625 0.68125
3.40625 0.68125 3.40625
0.68125 3.40625 3.40625
4.76875 2.04375 2.04375
2.04375 4.76875 2.04375
2.04375 2.04375 4.76875
4.76875 4.76875 4.76875
ITEM: TIMESTEP
5100
ITEM: NUMBER OF ATOMS
8
ITEM: BOX BOUNDS xy xz yz pp pp pp
0.0000000000000000e+00 5.5999999999999996e+00 0.0000000000000000e+00
0.0000000000000000e+00 5.5999999999999996e+00 0.0000000000000000e+00
0.0000000000000000e+00 5.5999999999999996e+00 0.0000000000000000e+00
ITEM: ATOMS x y z
0.68125 0.68125 0.68125
3.40625 3.40625 0.68125
3.40625 0.68125 3.40625
0.68125 3.40625 3.40625
4.76875 2.04375 2.04375
2.04375 4.76875 2.04375
2.04375 2.04375 4.76875
4.76875 4.76875 4.76875
ITEM: TIMESTEP
5110
ITEM: NUMBER OF ATOMS
8
ITEM: BOX BOUNDS xy xz yz pp pp pp
0.0000000000000000e+00 5.5999999999999996e+00 0.0000000000000000e+00
0.0000000000000000e+00 5.5999999999999996e+00 0.0000000000000000e+00
0.0000000000000000e+00 5.5999999999999996e+00 0.0000000000000000e+00
ITEM: ATOMS x y z
0.68125 0.68125 0.68125
3.40625 3.40625 0.68125
3.40625 0.68125 3.40625
0.68125 3.40625 3.40625
4.76875 2.04375 2.04375
2.04375 4.76875 2.04375
2.04375 2.04375 4.76875
4.76875 4.76875 4.76875
ITEM: TIMESTEP
5120
ITEM: NUMBER OF ATOMS
8
ITEM: BOX BOUNDS xy xz yz pp pp pp
0.0000000000000000e+00 5.5999999999999996e+00 0.0000000000000000e+00
0.0000000000000000e+00 5.5999999999999996e+00 0.0000000000000000e+00
0.0000000000000000e+00 5.5999999999999996e+00 0.0000000000000000e+00
ITEM: ATOMS x y z
0.68125 0.68125 0.68125
3.40625 3.40625 0.68125
3.40625 0.68125 3.40625
0.68125 3.40625 3.40625
4.76875 2.04375 2.04375
2.04375 4.76875 2.04375
2.04375 2.04375 4.76875
4.76875 4.76875 4.76875
ITEM: TIMESTEP
5130
ITEM: NUMBER OF ATOMS
8
ITEM: BOX BOUNDS xy xz yz pp pp pp
0.0000000000000000e+00 5.5999999999999996e+00 0.0000000000000000e+00
0.0000000000000000e+00 5.5999999999999996e+00 0.0000000000000000e+00
0.0000000000000000e+00 5.5999999999999996e+00 0.0000000000000000e+00
ITEM: ATOMS x y z
0.68125 0.68125 0.68125
3.40625 3.40625 0.68125
3.40625 0.68125 3.40625
0.68125 3.40625 3.40625
4.76875 2.04375 2.04375
2.04375 4.76875 2.04375
2.04375 2.04375 4.76875
4.76875 4.76875 4.76875
ITEM: TIMESTEP
5140
ITEM: NUMBER OF ATOMS
8
ITEM: BOX BOUNDS xy xz yz pp pp pp
0.0000000000000000e+00 5.5999999999999996e+00 0.0000000000000000e+00
0.0000000000000000e+00 5.5999999999999996e+00 0.0000000000000000e+00
0.0000000000000000e+00 5.5999999999999996e+00 0.0000000000000000e+00
ITEM: ATOMS x y z
0.68125 0.68125 0.68125
3.40625 3.40625 0.68125
3.40625 0.68125 3.40625
0.68125 3.40625 3.40625
4.76875 2.04375 2.04375
2.04375 4.76875 2.04375
2.04375 2.04375 4.76875
4.76875 4.76875 4.76875
ITEM: TIMESTEP
5150
ITEM: NUMBER OF ATOMS
8
ITEM: BOX BOUNDS xy xz yz pp pp pp
0.0000000000000000e+00 5.5999999999999996e+00 0.0000000000000000e+00
0.0000000000000000e+00 5.5999999999999996e+00 0.0000000000000000e+00
0.0000000000000000e+00 5.5999999999999996e+00 0.0000000000000000e+00
ITEM: ATOMS x y z
0.68125 0.68125 0.68125
3.40625 3.40625 0.68125
3.40625 0.68125 3.40625
0.68125 3.40625 3.40625
4.76875 2.04375 2.04375
2.04375 4.76875 2.04375
2.04375 2.04375 4.76875
4.76875 4.76875 4.76875
ITEM: TIMESTEP
5160
ITEM: NUMBER OF ATOMS
8
ITEM: BOX BOUNDS xy xz yz pp pp pp
0.0000000000000000e+00 5.5999999999999996e+00 0.0000000000000000e+00
0.0000000000000000e+00 5.5999999999999996e+00 0.0000000000000000e+00
0.0000000000000000e+00 5.5999999999999996e+00 0.0000000000000000e+00
ITEM: ATOMS x y z
0.68125 0.68125 0.68125
3.40625 3.40625 0.68125
3.40625 0.68125 3.40625
0.68125 3.40625 3.40625
4.76875 2.04375 2.04375
2.04375 4.76875 2.04375
2.04375 2.04375 4.76875
4.76875 4.76875 4.76875
ITEM: TIMESTEP
5170
ITEM: NUMBER OF ATOMS
8
ITEM: BOX BOUNDS xy xz yz pp pp pp
0.0000000000000000e+00 5.5999999999999996e+00 0.0000000000000000e+00
0.0000000000000000e+00 5.5999999999999996e+00 0.0000000000000000e+00
0.0000000000000000e+00 5.5999999999999996e+00 0.0000000000000000e+00
ITEM: ATOMS x y z
0.68125 0.68125 0.68125
3.40625 3.40625 0.68125
3.40625 0.68125 3.40625
0.68125 3.40625 3.40625
4.76875 2.04375 2.04375
2.04375 4.76875 2.04375
2.04375 2.04375 4.76875
4.76875 4.76875 4.76875
ITEM: TIMESTEP
5180
ITEM: NUMBER OF ATOMS
8
ITEM: BOX BOUNDS xy xz yz pp pp pp
0.0000000000000000e+00 5.5999999999999996e+00 0.0000000000000000e+00
0.0000000000000000e+00 5.5999999999999996e+00 0.0000000000000000e+00
0.0000000000000000e+00 5.5999999999999996e+00 0.0000000000000000e+00
ITEM: ATOMS x y z
0.68125 0.68125 0.68125
3.40625 3.40625 0.68125
3.40625 0.68125 3.40625
0.68125 3.40625 3.40625
4.76875 2.04375 2.04375
2.04375 4.76875 2.04375
2.04375 2.04375 4.76875
4.76875 4.76875 4.76875
ITEM: TIMESTEP
5190
ITEM: NUMBER OF ATOMS
8
ITEM: BOX BOUNDS xy xz yz pp pp pp
0.0000000000000000e+00 5.5999999999999996e+00 0.0000000000000000e+00
0.0000000000000000e+00 5.5999999999999996e+00 0.0000000000000000e+00
0.0000000000000000e+00 5.5999999999999996e+00 0.0000000000000000e+00
ITEM: ATOMS x y z
0.68125 0.68125 0.68125
3.40625 3.40625 0.68125
3.40625 0.68125 3.40625
0.68125 3.40625 3.40625
4.76875 2.04375 2.04375
2.04375 4.76875 2.04375
2.04375 2.04375 4.76875
4.76875 4.76875 4.76875
ITEM: TIMESTEP
5200
ITEM: NUMBER OF ATOMS
8
ITEM: BOX BOUNDS xy xz yz pp pp pp
0.0000000000000000e+00 5.5999999999999996e+00 0.0000000000000000e+00
0.0000000000000000e+00 5.5999999999999996e+00 0.0000000000000000e+00
0.0000000000000000e+00 5.5999999999999996e+00 0.0000000000000000e+00
ITEM: ATOMS x y z
0.68125 0.68125 0.68125
3.40625 3.40625 0.68125
3.40625 0.68125 3.40625
0.68125 3.40625 3.40625
4.76875 2.04375 2.04375
2.04375 4.76875 2.04375
2.04375 2.04375 4.76875
4.76875 4.76875 4.76875
ITEM: TIMESTEP
5210
ITEM: NUMBER OF ATOMS
8
ITEM: BOX BOUNDS xy xz yz pp pp pp
0.0000000000000000e+00 5.5999999999999996e+00 0.0000000000000000e+00
0.0000000000000000e+00 5.5999999999999996e+00 0.0000000000000000e+00
0.0000000000000000e+00 5.5999999999999996e+00 0.0000000000000000e+00
ITEM: ATOMS x y z
0.68125 0.68125 0.68125
3.40625 3.40625 0.68125
3.40625 0.68125 3.40625
0.68125 3.40625 3.40625
4.76875 2.04375 2.04375
2.04375 4.76875 2.04375
2.04375 2.04375 4.76875
4.76875 4.76875 4.76875
ITEM: TIMESTEP
5220
ITEM: NUMBER OF ATOMS
8
ITEM: BOX BOUNDS xy xz yz pp pp pp
0.0000000000000000e+00 5.5999999999999996e+00 0.0000000000000000e+00
0.0000000000000000e+00 5.5999999999999996e+00 0.0000000000000000e+00
0.0000000000000000e+00 5.5999999999999996e+00 0.0000000000000000e+00
ITEM: ATOMS x y z
0.68125 0.68125 0.68125
3.40625 3.40625 0.68125
3.40625 0.68125 3.40625
0.68125 3.40625 3.40625
4.76875 2.04375 2.04375
2.04375 4.76875 2.04375
2.04375 2.04375 4.76875
4.76875 4.76875 4.76875
ITEM: TIMESTEP
5230
ITEM: NUMBER OF ATOMS
8
ITEM: BOX BOUNDS xy xz yz pp pp pp
0.0000000000000000e+00 5.5999999999999996e+00 0.0000000000000000e+00
0.0000000000000000e+00 5.5999999999999996e+00 0.0000000000000000e+00
0.0000000000000000e+00 5.5999999999999996e+00 0.0000000000000000e+00
ITEM: ATOMS x y z
0.68125 0.68125 0.68125
3.40625 3.40625 0.68125
3.40625 0.68125 3.40625
0.68125 3.40625 3.40625
4.76875 2.04375 2.04375
2.04375 4.76875 2.04375
2.04375 2.04375 4.76875
4.76875 4.76875 4.76875
ITEM: TIMESTEP
5240
ITEM: NUMBER OF ATOMS
8
ITEM: BOX BOUNDS xy xz yz pp pp pp
0.0000000000000000e+00 5.5999999999999996e+00 0.0000000000000000e+00
0.0000000000000000e+00 5.5999999999999996e+00 0.0000000000000000e+00
0.0000000000000000e+00 5.5999999999999996e+00 0.0000000000000000e+00
ITEM: ATOMS x y z
0.68125 0.68125 0.68125
3.40625 3.40625 0.68125
3.40625 0.68125 3.40625
0.68125 3.40625 3.40625
4.76875 2.04375 2.04375
2.04375 4.76875 2.04375
2.04375 2.04375 4.76875
4.76875 4.76875 4.76875
ITEM: TIMESTEP
5250
ITEM: NUMBER OF ATOMS
8
ITEM: BOX BOUNDS xy xz yz pp pp pp
0.0000000000000000e+00 5.5999999999999996e+00 0.0000000000000000e+00
0.0000000000000000e+00 5.5999999999999996e+00 0.0000000000000000e+00
0.0000000000000000e+00 5.5999999999999996e+00 0.0000000000000000e+00
ITEM: ATOMS x y z
0.68125 0.68125 0.68125
3.40625 3.40625 0.68125
3.40625 0.68125 3.40625
0.68125 3.40625 3.40625
4.76875 2.04375 2.04375
2.04375 4.76875 2.04375
2.04375 2.04375 4.76875
4.76875 4.76875 4.76875
ITEM: TIMESTEP
5260
ITEM: NUMBER OF ATOMS
8
ITEM: BOX BOUNDS xy xz yz pp pp pp
0.0000000000000000e+00 5.5999999999999996e+00 0.0000000000000000e+00
0.0000000000000000e+00 5.5999999999999996e+00 0.0000000000000000e+00
0.0000000000000000e+00 5.5999999999999996e+00 0.0000000000000000e+00
ITEM: ATOMS x y z
0.68125 0.68125 0.68125
3.40625 3.40625 0.68125
3.40625 0.68125 3.40625
0.68125 3.40625 3.40625
4.76875 2.04375 2.04375
2.04375 4.76875 2.04375
2.04375 2.04375 4.76875
4.76875 4.76875 4.76875
ITEM: TIMESTEP
5270
ITEM: NUMBER OF ATOMS
8
ITEM: BOX BOUNDS xy xz yz pp pp pp
0.0000000000000000e+00 5.5999999999999996e+00 0.0000000000000000e+00
0.0000000000000000e+00 5.5999999999999996e+00 0.0000000000000000e+00
0.0000000000000000e+00 5.5999999999999996e+00 0.0000000000000000e+00
ITEM: ATOMS x y z
0.68125 0.68125 0.68125
3.40625 3.40625 0.68125
3.40625 0.68125 3.40625
0.68125 3.40625 3.40625
4.76875 2.04375 2.04375
2.04375 4.76875 2.04375
2.04375 2.04375 4.76875
4.76875 4.76875 4.76875
ITEM: TIMESTEP
5280
ITEM: NUMBER OF ATOMS
8
ITEM: BOX BOUNDS xy xz yz pp pp pp
0.0000000000000000e+00 5.5999999999999996e+00 0.0000000000000000e+00
0.0000000000000000e+00 5.5999999999999996e+00 0.0000000000000000e+00
0.0000000000000000e+00 5.5999999999999996e+00 0.0000000000000000e+00
ITEM: ATOMS x y z
0.68125 0.68125 0.68125
3.40625 3.40625 0.68125
3.40625 0.68125 3.40625
0.68125 3.40625 3.40625
4.76875 2.04375 2.04375
2.04375 4.76875 2.04375
2.04375 2.04375 4.76875
4.76875 4.76875 4.76875
ITEM: TIMESTEP
5290
ITEM: NUMBER OF ATOMS
8
ITEM: BOX BOUNDS xy xz yz pp pp pp
0.0000000000000000e+00 5.5999999999999996e+00 0.0000000000000000e+00
0.0000000000000000e+00 5.5999999999999996e+00 0.0000000000000000e+00
0.0000000000000000e+00 5.5999999999999996e+00 0.0000000000000000e+00
ITEM: ATOMS x y z
0.68125 0.68125 0.68125
3.40625 3.40625 0.68125
3.40625 0.68125 3.40625
0.68125 3.40625 3.40625
4.76875 2.04375 2.04375
2.04375 4.76875 2.04375
2.04375 2.04375 4.76875
4.76875 4.76875 4.76875
ITEM: TIMESTEP
5300
ITEM: NUMBER OF ATOMS
8
ITEM: BOX BOUNDS xy xz yz pp pp pp
0.0000000000000000e+00 5.5999999999999996e+00 0.0000000000000000e+00
0.0000000000000000e+00 5.5999999999999996e+00 0.0000000000000000e+00
0.0000000000000000e+00 5.5999999999999996e+00 0.0000000000000000e+00
ITEM: ATOMS x y z
0.68125 0.68125 0.68125
3.40625 3.40625 0.68125
3.40625 0.68125 3.40625
0.68125 3.40625 3.40625
4.76875 2.04375 2.04375
2.04375 4.76875 2.04375
2.04375 2.04375 4.76875
4.76875 4.76875 4.76875
ITEM: TIMESTEP
5310
ITEM: NUMBER OF ATOMS
8
ITEM: BOX BOUNDS xy xz yz pp pp pp
0.0000000000000000e+00 5.5999999999999996e+00 0.0000000000000000e+00
0.0000000000000000e+00 5.5999999999999996e+00 0.0000000000000000e+00
0.0000000000000000e+00 5.5999999999999996e+00 0.0000000000000000e+00
ITEM: ATOMS x y z
0.68125 0.68125 0.68125
3.40625 3.40625 0.68125
3.40625 0.68125 3.40625
0.68125 3.40625 3.40625
4.76875 2.04375 2.04375
2.04375 4.76875 2.04375
2.04375 2.04375 4.76875
4.76875 4.76875 4.76875
ITEM: TIMESTEP
5320
ITEM: NUMBER OF ATOMS
8
ITEM: BOX BOUNDS xy xz yz pp pp pp
0.0000000000000000e+00 5.5999999999999996e+00 0.0000000000000000e+00
0.0000000000000000e+00 5.5999999999999996e+00 0.0000000000000000e+00
0.0000000000000000e+00 5.5999999999999996e+00 0.0000000000000000e+00
ITEM: ATOMS x y z
0.68125 0.68125 0.68125
3.40625 3.40625 0.68125
3.40625 0.68125 3.40625
0.68125 3.40625 3.40625
4.76875 2.04375 2.04375
2.04375 4.76875 2.04375
2.04375 2.04375 4.76875
4.76875 4.76875 4.76875
ITEM: TIMESTEP
5330
ITEM: NUMBER OF ATOMS
8
ITEM: BOX BOUNDS xy xz yz pp pp pp
0.0000000000000000e+00 5.5999999999999996e+00 0.0000000000000000e+00
0.0000000000000000e+00 5.5999999999999996e+00 0.0000000000000000e+00
0.0000000000000000e+00 5.5999999999999996e+00 0.0000000000000000e+00
ITEM: ATOMS x y z
0.68125 0.68125 0.68125
3.40625 3.40625 0.68125
3.40625 0.68125 3.40625
0.68125 3.40625 3.40625
4.76875 2.04375 2.04375
2.04375 4.76875 2.04375
2.04375 2.04375 4.76875
4.76875 4.76875 4.76875
ITEM: TIMESTEP
5340
ITEM: NUMBER OF ATOMS
8
ITEM: BOX BOUNDS xy xz yz pp pp pp
0.0000000000000000e+00 5.5999999999999996e+00 0.0000000000000000e+00
0.0000000000000000e+00 5.5999999999999996e+00 0.0000000000000000e+00
0.0000000000000000e+00 5.5999999999999996e+00 0.0000000000000000e+00
ITEM: ATOMS x y z
0.68125 0.68125 0.68125
3.40625 3.40625 0.68125
3.40625 0.68125 3.40625
0.68125 3.40625 3.40625
4.76875 2.04375 2.04375
2.04375 4.76875 2.04375
2.04375 2.04375 4.76875
4.76875 4.76875 4.76875
ITEM: TIMESTEP
5350
ITEM: NUMBER OF ATOMS
8
ITEM: BOX BOUNDS xy xz yz pp pp pp
0.0000000000000000e+00 5.5999999999999996e+00 0.0000000000000000e+00
0.0000000000000000e+00 5.5999999999999996e+00 0.0000000000000000e+00
0.0000000000000000e+00 5.5999999999999996e+00 0.0000000000000000e+00
ITEM: ATOMS x y z
0.68125 0.68125 0.68125
3.40625 3.40625 0.68125
3.40625 0.68125 3.40625
0.68125 3.40625 3.40625
4.76875 2.04375 2.04375
2.04375 4.76875 2.04375
2.04375 2.04375 4.76875
4.76875 4.76875 4.76875
ITEM: TIMESTEP
5360
ITEM: NUMBER OF ATOMS
8
ITEM: BOX BOUNDS xy xz yz pp pp pp
0.0000000000000000e+00 5.5999999999999996e+00 0.0000000000000000e+00
0.0000000000000000e+00 5.5999999999999996e+00 0.0000000000000000e+00
0.0000000000000000e+00 5.5999999999999996e+00 0.0000000000000000e+00
ITEM: ATOMS x y z
0.68125 0.68125 0.68125
3.40625 3.40625 0.68125
3.40625 0.68125 3.40625
0.68125 3.40625 3.40625
4.76875 2.04375 2.04375
2.04375 4.76875 2.04375
2.04375 2.04375 4.76875
4.76875 4.76875 4.76875
ITEM: TIMESTEP
5370
ITEM: NUMBER OF ATOMS
8
ITEM: BOX BOUNDS xy xz yz pp pp pp
0.0000000000000000e+00 5.5999999999999996e+00 0.0000000000000000e+00
0.0000000000000000e+00 5.5999999999999996e+00 0.0000000000000000e+00
0.0000000000000000e+00 5.5999999999999996e+00 0.0000000000000000e+00
ITEM: ATOMS x y z
0.68125 0.68125 0.68125
3.40625 3.40625 0.68125
3.40625 0.68125 3.40625
0.68125 3.40625 3.40625
4.76875 2.04375 2.04375
2.04375 4.76875 2.04375
2.04375 2.04375 4.76875
4.76875 4.76875 4.76875
ITEM: TIMESTEP
5380
ITEM: NUMBER OF ATOMS
8
ITEM: BOX BOUNDS xy xz yz pp pp pp
0.0000000000000000e+00 5.5999999999999996e+00 0.0000000000000000e+00
0.0000000000000000e+00 5.5999999999999996e+00 0.0000000000000000e+00
0.0000000000000000e+00 5.5999999999999996e+00 0.0000000000000000e+00
ITEM: ATOMS x y z
0.68125 0.68125 0.68125
3.40625 3.40625 0.68125
3.40625 0.68125 3.40625
0.68125 3.40625 3.40625
4.76875 2.04375 2.04375
2.04375 4.76875 2.04375
2.04375 2.04375 4.76875
4.76875 4.76875 4.76875
ITEM: TIMESTEP
5390
ITEM: NUMBER OF ATOMS
8
ITEM: BOX BOUNDS xy xz yz pp pp pp
0.0000000000000000e+00 5.5999999999999996e+00 0.0000000000000000e+00
0.0000000000000000e+00 5.5999999999999996e+00 0.0000000000000000e+00
0.0000000000000000e+00 5.5999999999999996e+00 0.0000000000000000e+00
ITEM: ATOMS x y z
0.68125 0.68125 0.68125
3.40625 3.40625 0.68125
3.40625 0.68125 3.40625
0.68125 3.40625 3.40625
4.76875 2.04375 2.04375
2.04375 4.76875 2.04375
2.04375 2.04375 4.76875
4.76875 4.76875 4.76875
ITEM: TIMESTEP
5400
ITEM: NUMBER OF ATOMS
8
ITEM: BOX BOUNDS xy xz yz pp pp pp
0.0000000000000000e+00 5.5999999999999996e+00 0.0000000000000000e+00
0.0000000000000000e+00 5.5999999999999996e+00 0.0000000000000000e+00
0.0000000000000000e+00 5.5999999999999996e+00 0.0000000000000000e+00
ITEM: ATOMS x y z
0.68125 0.68125 0.68125
3.40625 3.40625 0.68125
3.40625 0.68125 3.40625
0.68125 3.40625 3.40625
4.76875 2.04375 2.04375
2.04375 4.76875 2.04375
2.04375 2.04375 4.76875
4.76875 4.76875 4.76875
ITEM: TIMESTEP
5410
ITEM: NUMBER OF ATOMS
8
ITEM: BOX BOUNDS xy xz yz pp pp pp
0.0000000000000000e+00 5.5999999999999996e+00 0.0000000000000000e+00
0.0000000000000000e+00 5.5999999999999996e+00 0.0000000000000000e+00
0.0000000000000000e+00 5.5999999999999996e+00 0.0000000000000000e+00
ITEM: ATOMS x y z
0.68125 0.68125 0.68125
3.40625 3.40625 0.68125
3.40625 0.68125 3.40625
0.68125 3.40625 3.40625
4.76875 2.04375 2.04375
2.04375 4.76875 2.04375
2.04375 2.04375 4.76875
4.76875 4.76875 4.76875
ITEM: TIMESTEP
5420
ITEM: NUMBER OF ATOMS
8
ITEM: BOX BOUNDS xy xz yz pp pp pp
0.0000000000000000e+00 5.5999999999999996e+00 0.0000000000000000e+00
0.0000000000000000e+00 5.5999999999999996e+00 0.0000000000000000e+00
0.0000000000000000e+00 5.5999999999999996e+00 0.0000000000000000e+00
ITEM: ATOMS x y z
0.68125 0.68125 0.68125
3.40625 3.40625 0.68125
3.40625 0.68125 3.40625
0.68125 3.40625 3.40625
4.76875 2.04375 2.04375
2.04375 4.76875 2.04375
2.04375 2.04375 4.76875
4.76875 4.76875 4.76875
ITEM: TIMESTEP
5430
ITEM: NUMBER OF ATOMS
8
ITEM: BOX BOUNDS xy xz yz pp pp pp
0.0000000000000000e+00 5.5999999999999996e+00 0.0000000000000000e+00
0.0000000000000000e+00 5.5999999999999996e+00 0.0000000000000000e+00
0.0000000000000000e+00 5.5999999999999996e+00 0.0000000000000000e+00
ITEM: ATOMS x y z
0.68125 0.68125 0.68125
3.40625 3.40625 0.68125
3.40625 0.68125 3.40625
0.68125 3.40625 3.40625
4.76875 2.04375 2.04375
2.04375 4.76875 2.04375
2.04375 2.04375 4.76875
4.76875 4.76875 4.76875
ITEM: TIMESTEP
5440
ITEM: NUMBER OF ATOMS
8
ITEM: BOX BOUNDS xy xz yz pp pp pp
0.0000000000000000e+00 5.5999999999999996e+00 0.0000000000000000e+00
0.0000000000000000e+00 5.5999999999999996e+00 0.0000000000000000e+00
0.0000000000000000e+00 5.5999999999999996e+00 0.0000000000000000e+00
ITEM: ATOMS x y z
0.68125 0.68125 0.68125
3.40625 3.40625 0.68125
3.40625 0.68125 3.40625
0.68125 3.40625 3.40625
4.76875 2.04375 2.04375
2.04375 4.76875 2.04375
2.04375 2.04375 4.76875
4.76875 4.76875 4.76875
ITEM: TIMESTEP
5450
ITEM: NUMBER OF ATOMS
8
ITEM: BOX BOUNDS xy xz yz pp pp pp
0.0000000000000000e+00 5.5999999999999996e+00 0.0000000000000000e+00
0.0000000000000000e+00 5.5999999999999996e+00 0.0000000000000000e+00
0.0000000000000000e+00 5.5999999999999996e+00 0.0000000000000000e+00
ITEM: ATOMS x y z
0.68125 0.68125 0.68125
3.40625 3.40625 0.68125
3.40625 0.68125 3.40625
0.68125 3.40625 3.40625
4.76875 2.04375 2.04375
2.04375 4.76875 2.04375
2.04375 2.04375 4.76875
4.76875 4.76875 4.76875
ITEM: TIMESTEP
5460
ITEM: NUMBER OF ATOMS
8
ITEM: BOX BOUNDS xy xz yz pp pp pp
0.0000000000000000e+00 5.5999999999999996e+00 0.0000000000000000e+00
0.0000000000000000e+00 5.5999999999999996e+00 0.0000000000000000e+00
0.0000000000000000e+00 5.5999999999999996e+00 0.0000000000000000e+00
ITEM: ATOMS x y z
0.68125 0.68125 0.68125
3.40625 3.40625 0.68125
3.40625 0.68125 3.40625
0.68125 3.40625 3.40625
4.76875 2.04375 2.04375
2.04375 4.76875 2.04375
2.04375 2.04375 4.76875
4.76875 4.76875 4.76875
ITEM: TIMESTEP
5470
ITEM: NUMBER OF ATOMS
8
ITEM: BOX BOUNDS xy xz yz pp pp pp
0.0000000000000000e+00 5.5999999999999996e+00 0.0000000000000000e+00
0.0000000000000000e+00 5.5999999999999996e+00 0.0000000000000000e+00
0.0000000000000000e+00 5.5999999999999996e+00 0.0000000000000000e+00
ITEM: ATOMS x y z
0.68125 0.68125 0.68125
3.40625 3.40625 0.68125
3.40625 0.68125 3.40625
0.68125 3.40625 3.40625
4.76875 2.04375 2.04375
2.04375 4.76875 2.04375
2.04375 2.04375 4.76875
4.76875 4.76875 4.76875
ITEM: TIMESTEP
5480
ITEM: NUMBER OF ATOMS
8
ITEM: BOX BOUNDS xy xz yz pp pp pp
0.0000000000000000e+00 5.5999999999999996e+00 0.0000000000000000e+00
0.0000000000000000e+00 5.5999999999999996e+00 0.0000000000000000e+00
0.0000000000000000e+00 5.5999999999999996e+00 0.0000000000000000e+00
ITEM: ATOMS x y z
0.68125 0.68125 0.68125
3.40625 3.40625 0.68125
3.40625 0.68125 3.40625
0.68125 3.40625 3.40625
4.76875 2.04375 2.04375
2.04375 4.76875 2.04375
2.04375 2.04375 4.76875
4.76875 4.76875 4.76875
ITEM: TIMESTEP
5490
ITEM: NUMBER OF ATOMS
8
ITEM: BOX BOUNDS xy xz yz pp pp pp
0.0000000000000000e+00 5.5999999999999996e+00 0.0000000000000000e+00
0.0000000000000000e+00 5.5999999999999996e+00 0.0000000000000000e+00
0.0000000000000000e+00 5.5999999999999996e+00 0.0000000000000000e+00
ITEM: ATOMS x y z
0.68125 0.68125 0.68125
3.40625 3.40625 0.68125
3.40625 0.68125 3.40625
0.68125 3.40625 3.40625
4.76875 2.04375 2.04375
2.04375 4.76875 2.04375
2.04375 2.04375 4.76875
4.76875 4.76875 4.76875
ITEM: TIMESTEP
5500
ITEM: NUMBER OF ATOMS
8
ITEM: BOX BOUNDS xy xz yz pp pp pp
0.0000000000000000e+00 5.5999999999999996e+00 0.0000000000000000e+00
0.0000000000000000e+00 5.5999999999999996e+00 0.0000000000000000e+00
0.0000000000000000e+00 5.5999999999999996e+00 0.0000000000000000e+00
ITEM: ATOMS x y z
0.68125 0.68125 0.68125
3.40625 3.40625 0.68125
3.40625 0.68125 3.40625
0.68125 3.40625 3.40625
4.76875 2.04375 2.04375
2.04375 4.76875 2.04375
2.04375 2.04375 4.76875
4.76875 4.76875 4.76875
ITEM: TIMESTEP
5510
ITEM: NUMBER OF ATOMS
8
ITEM: BOX BOUNDS xy xz yz pp pp pp
0.0000000000000000e+00 5.5999999999999996e+00 0.0000000000000000e+00
0.0000000000000000e+00 5.5999999999999996e+00 0.0000000000000000e+00
0.0000000000000000e+00 5.5999999999999996e+00 0.0000000000000000e+00
ITEM: ATOMS x y z
0.68125 0.68125 0.68125
3.40625 3.40625 0.68125
3.40625 0.68125 3.40625
0.68125 3.40625 3.40625
4.76875 2.04375 2.04375
2.04375 4.76875 2.04375
2.04375 2.04375 4.76875
4.76875 4.76875 4.76875
ITEM: TIMESTEP
5520
ITEM: NUMBER OF ATOMS
8
ITEM: BOX BOUNDS xy xz yz pp pp pp
0.0000000000000000e+00 5.5999999999999996e+00 0.0000000000000000e+00
0.0000000000000000e+00 5.5999999999999996e+00 0.0000000000000000e+00
0.0000000000000000e+00 5.5999999999999996e+00 0.0000000000000000e+00
ITEM: ATOMS x y z
0.68125 0.68125 0.68125
3.40625 3.40625 0.68125
3.40625 0.68125 3.40625
0.68125 3.40625 3.40625
4.76875 2.04375 2.04375
2.04375 4.76875 2.04375
2.04375 2.04375 4.76875
4.76875 4.76875 4.76875
ITEM: TIMESTEP
5530
ITEM: NUMBER OF ATOMS
8
ITEM: BOX BOUNDS xy xz yz pp pp pp
0.0000000000000000e+00 5.5999999999999996e+00 0.0000000000000000e+00
0.0000000000000000e+00 5.5999999999999996e+00 0.0000000000000000e+00
0.0000000000000000e+00 5.5999999999999996e+00 0.0000000000000000e+00
ITEM: ATOMS x y z
0.68125 0.68125 0.68125
3.40625 3.40625 0.68125
3.40625 0.68125 3.40625
0.68125 3.40625 3.40625
4.76875 2.04375 2.04375
2.04375 4.76875 2.04375
2.04375 2.04375 4.76875
4.76875 4.76875 4.76875
ITEM: TIMESTEP
5540
ITEM: NUMBER OF ATOMS
8
ITEM: BOX BOUNDS xy xz yz pp pp pp
0.0000000000000000e+00 5.5999999999999996e+00 0.0000000000000000e+00
0.0000000000000000e+00 5.5999999999999996e+00 0.0000000000000000e+00
0.0000000000000000e+00 5.5999999999999996e+00 0.0000000000000000e+00
ITEM: ATOMS x y z
0.68125 0.68125 0.68125
3.40625 3.40625 0.68125
3.40625 0.68125 3.40625
0.68125 3.40625 3.40625
4.76875 2.04375 2.04375
2.04375 4.76875 2.04375
2.04375 2.04375 4.76875
4.76875 4.76875 4.76875
ITEM: TIMESTEP
5550
ITEM: NUMBER OF ATOMS
8
ITEM: BOX BOUNDS xy xz yz pp pp pp
0.0000000000000000e+00 5.5999999999999996e+00 0.0000000000000000e+00
0.0000000000000000e+00 5.5999999999999996e+00 0.0000000000000000e+00
0.0000000000000000e+00 5.5999999999999996e+00 0.0000000000000000e+00
ITEM: ATOMS x y z
0.68125 0.68125 0.68125
3.40625 3.40625 0.68125
3.40625 0.68125 3.40625
0.68125 3.40625 3.40625
4.76875 2.04375 2.04375
2.04375 4.76875 2.04375
2.04375 2.04375 4.76875
4.76875 4.76875 4.76875
ITEM: TIMESTEP
5560
ITEM: NUMBER OF ATOMS
8
ITEM: BOX BOUNDS xy xz yz pp pp pp
0.0000000000000000e+00 5.5999999999999996e+00 0.0000000000000000e+00
0.0000000000000000e+00 5.5999999999999996e+00 0.0000000000000000e+00
0.0000000000000000e+00 5.5999999999999996e+00 0.0000000000000000e+00
ITEM: ATOMS x y z
0.68125 0.68125 0.68125
3.40625 3.40625 0.68125
3.40625 0.68125 3.40625
0.68125 3.40625 3.40625
4.76875 2.04375 2.04375
2.04375 4.76875 2.04375
2.04375 2.04375 4.76875
4.76875 4.76875 4.76875
ITEM: TIMESTEP
5570
ITEM: NUMBER OF ATOMS
8
ITEM: BOX BOUNDS xy xz yz pp pp pp
0.0000000000000000e+00 5.5999999999999996e+00 0.0000000000000000e+00
0.0000000000000000e+00 5.5999999999999996e+00 0.0000000000000000e+00
0.0000000000000000e+00 5.5999999999999996e+00 0.0000000000000000e+00
ITEM: ATOMS x y z
0.68125 0.68125 0.68125
3.40625 3.40625 0.68125
3.40625 0.68125 3.40625
0.68125 3.40625 3.40625
4.76875 2.04375 2.04375
2.04375 4.76875 2.04375
2.04375 2.04375 4.76875
4.76875 4.76875 4.76875
ITEM: TIMESTEP
5580
ITEM: NUMBER OF ATOMS
8
ITEM: BOX BOUNDS xy xz yz pp pp pp
0.0000000000000000e+00 5.5999999999999996e+00 0.0000000000000000e+00
0.0000000000000000e+00 5.5999999999999996e+00 0.0000000000000000e+00
0.0000000000000000e+00 5.5999999999999996e+00 0.0000000000000000e+00
ITEM: ATOMS x y z
0.68125 0.68125 0.68125
3.40625 3.40625 0.68125
3.40625 0.68125 3.40625
0.68125 3.40625 3.40625
4.76875 2.04375 2.04375
2.04375 4.76875 2.04375
2.04375 2.04375 4.76875
4.76875 4.76875 4.76875
ITEM: TIMESTEP
5590
ITEM: NUMBER OF ATOMS
8
ITEM: BOX BOUNDS xy xz yz pp pp pp
0.0000000000000000e+00 5.5999999999999996e+00 0.0000000000000000e+00
0.0000000000000000e+00 5.5999999999999996e+00 0.0000000000000000e+00
0.0000000000000000e+00 5.5999999999999996e+00 0.0000000000000000e+00
ITEM: ATOMS x y z
0.68125 0.68125 0.68125
3.40625 3.40625 0.68125
3.40625 0.68125 3.40625
0.68125 3.40625 3.40625
4.76875 2.04375 2.04375
2.04375 4.76875 2.04375
2.04375 2.04375 4.76875
4.76875 4.76875 4.76875
ITEM: TIMESTEP
5600
ITEM: NUMBER OF ATOMS
8
ITEM: BOX BOUNDS xy xz yz pp pp pp
0.0000000000000000e+00 5.5999999999999996e+00 0.0000000000000000e+00
0.0000000000000000e+00 5.5999999999999996e+00 0.0000000000000000e+00
0.0000000000000000e+00 5.5999999999999996e+00 0.0000000000000000e+00
ITEM: ATOMS x y z
0.68125 0.68125 0.68125
3.40625 3.40625 0.68125
3.40625 0.68125 3.40625
0.68125 3.40625 3.40625
4.76875 2.04375 2.04375
2.04375 4.76875 2.04375
2.04375 2.04375 4.76875
4.76875 4.76875 4.76875
ITEM: TIMESTEP
5610
ITEM: NUMBER OF ATOMS
8
ITEM: BOX BOUNDS xy xz yz pp pp pp
0.0000000000000000e+00 5.5999999999999996e+00 0.0000000000000000e+00
0.0000000000000000e+00 5.5999999999999996e+00 0.0000000000000000e+00
0.0000000000000000e+00 5.5999999999999996e+00 0.0000000000000000e+00
ITEM: ATOMS x y z
0.68125 0.68125 0.68125
3.40625 3.40625 0.68125
3.40625 0.68125 3.40625
0.68125 3.40625 3.40625
4.76875 2.04375 2.04375
2.04375 4.76875 2.04375
2.04375 2.04375 4.76875
4.76875 4.76875 4.76875
ITEM: TIMESTEP
5620
ITEM: NUMBER OF ATOMS
8
ITEM: BOX BOUNDS xy xz yz pp pp pp
0.0000000000000000e+00 5.5999999999999996e+00 0.0000000000000000e+00
0.0000000000000000e+00 5.5999999999999996e+00 0.0000000000000000e+00
0.0000000000000000e+00 5.5999999999999996e+00 0.0000000000000000e+00
ITEM: ATOMS x y z
0.68125 0.68125 0.68125
3.40625 3.40625 0.68125
3.40625 0.68125 3.40625
0.68125 3.40625 3.40625
4.76875 2.04375 2.04375
2.04375 4.76875 2.04375
2.04375 2.04375 4.76875
4.76875 4.76875 4.76875
ITEM: TIMESTEP
5630
ITEM: NUMBER OF ATOMS
8
ITEM: BOX BOUNDS xy xz yz pp pp pp
0.0000000000000000e+00 5.5999999999999996e+00 0.0000000000000000e+00
0.0000000000000000e+00 5.5999999999999996e+00 0.0000000000000000e+00
0.0000000000000000e+00 5.5999999999999996e+00 0.0000000000000000e+00
ITEM: ATOMS x y z
0.68125 0.68125 0.68125
3.40625 3.40625 0.68125
3.40625 0.68125 3.40625
0.68125 3.40625 3.40625
4.76875 2.04375 2.04375
2.04375 4.76875 2.04375
2.04375 2.04375 4.76875
4.76875 4.76875 4.76875
ITEM: TIMESTEP
5640
ITEM: NUMBER OF ATOMS
8
ITEM: BOX BOUNDS xy xz yz pp pp pp
0.0000000000000000e+00 5.5999999999999996e+00 0.0000000000000000e+00
0.0000000000000000e+00 5.5999999999999996e+00 0.0000000000000000e+00
0.0000000000000000e+00 5.5999999999999996e+00 0.0000000000000000e+00
ITEM: ATOMS x y z
0.68125 0.68125 0.68125
3.40625 3.40625 0.68125
3.40625 0.68125 3.40625
0.68125 3.40625 3.40625
4.76875 2.04375 2.04375
2.04375 4.76875 2.04375
2.04375 2.04375 4.76875
4.76875 4.76875 4.76875
ITEM: TIMESTEP
5650
ITEM: NUMBER OF ATOMS
8
ITEM: BOX BOUNDS xy xz yz pp pp pp
0.0000000000000000e+00 5.5999999999999996e+00 0.0000000000000000e+00
0.0000000000000000e+00 5.5999999999999996e+00 0.0000000000000000e+00
0.0000000000000000e+00 5.5999999999999996e+00 0.0000000000000000e+00
ITEM: ATOMS x y z
0.68125 0.68125 0.68125
3.40625 3.40625 0.68125
3.40625 0.68125 3.40625
0.68125 3.40625 3.40625
4.76875 2.04375 2.04375
2.04375 4.76875 2.04375
2.04375 2.04375 4.76875
4.76875 4.76875 4.76875
ITEM: TIMESTEP
5660
ITEM: NUMBER OF ATOMS
8
ITEM: BOX BOUNDS xy xz yz pp pp pp
0.0000000000000000e+00 5.5999999999999996e+00 0.0000000000000000e+00
0.0000000000000000e+00 5.5999999999999996e+00 0.0000000000000000e+00
0.0000000000000000e+00 5.5999999999999996e+00 0.0000000000000000e+00
ITEM: ATOMS x y z
0.68125 0.68125 0.68125
3.40625 3.40625 0.68125
3.40625 0.68125 3.40625
0.68125 3.40625 3.40625
4.76875 2.04375 2.04375
2.04375 4.76875 2.04375
2.04375 2.04375 4.76875
4.76875 4.76875 4.76875
ITEM: TIMESTEP
5670
ITEM: NUMBER OF ATOMS
8
ITEM: BOX BOUNDS xy xz yz pp pp pp
0.0000000000000000e+00 5.5999999999999996e+00 0.0000000000000000e+00
0.0000000000000000e+00 5.5999999999999996e+00 0.0000000000000000e+00
0.0000000000000000e+00 5.5999999999999996e+00 0.0000000000000000e+00
ITEM: ATOMS x y z
0.68125 0.68125 0.68125
3.40625 3.40625 0.68125
3.40625 0.68125 3.40625
0.68125 3.40625 3.40625
4.76875 2.04375 2.04375
2.04375 4.76875 2.04375
2.04375 2.04375 4.76875
4.76875 4.76875 4.76875
ITEM: TIMESTEP
5680
ITEM: NUMBER OF ATOMS
8
ITEM: BOX BOUNDS xy xz yz pp pp pp
0.0000000000000000e+00 5.5999999999999996e+00 0.0000000000000000e+00
0.0000000000000000e+00 5.5999999999999996e+00 0.0000000000000000e+00
0.0000000000000000e+00 5.5999999999999996e+00 0.0000000000000000e+00
ITEM: ATOMS x y z
0.68125 0.68125 0.68125
3.40625 3.40625 0.68125
3.40625 0.68125 3.40625
0.68125 3.40625 3.40625
4.76875 2.04375 2.04375
2.04375 4.76875 2.04375
2.04375 2.04375 4.76875
4.76875 4.76875 4.76875
ITEM: TIMESTEP
5690
ITEM: NUMBER OF ATOMS
8
ITEM: BOX BOUNDS xy xz yz pp pp pp
0.0000000000000000e+00 5.5999999999999996e+00 0.0000000000000000e+00
0.0000000000000000e+00 5.5999999999999996e+00 0.0000000000000000e+00
0.0000000000000000e+00 5.5999999999999996e+00 0.0000000000000000e+00
ITEM: ATOMS x y z
0.68125 0.68125 0.68125
3.40625 3.40625 0.68125
3.40625 0.68125 3.40625
0.68125 3.40625 3.40625
4.76875 2.04375 2.04375
2.04375 4.76875 2.04375
2.04375 2.04375 4.76875
4.76875 4.76875 4.76875
ITEM: TIMESTEP
5700
ITEM: NUMBER OF ATOMS
8
ITEM: BOX BOUNDS xy xz yz pp pp pp
0.0000000000000000e+00 5.5999999999999996e+00 0.0000000000000000e+00
0.0000000000000000e+00 5.5999999999999996e+00 0.0000000000000000e+00
0.0000000000000000e+00 5.5999999999999996e+00 0.0000000000000000e+00
ITEM: ATOMS x y z
0.68125 0.68125 0.68125
3.40625 3.40625 0.68125
3.40625 0.68125 3.40625
0.68125 3.40625 3.40625
4.76875 2.04375 2.04375
2.04375 4.76875 2.04375
2.04375 2.04375 4.76875
4.76875 4.76875 4.76875
ITEM: TIMESTEP
5710
ITEM: NUMBER OF ATOMS
8
ITEM: BOX BOUNDS xy xz yz pp pp pp
0.0000000000000000e+00 5.5999999999999996e+00 0.0000000000000000e+00
0.0000000000000000e+00 5.5999999999999996e+00 0.0000000000000000e+00
0.0000000000000000e+00 5.5999999999999996e+00 0.0000000000000000e+00
ITEM: ATOMS x y z
0.68125 0.68125 0.68125
3.40625 3.40625 0.68125
3.40625 0.68125 3.40625
0.68125 3.40625 3.40625
4.76875 2.04375 2.04375
2.04375 4.76875 2.04375
2.04375 2.04375 4.76875
4.76875 4.76875 4.76875
ITEM: TIMESTEP
5720
ITEM: NUMBER OF ATOMS
8
ITEM: BOX BOUNDS xy xz yz pp pp pp
0.0000000000000000e+00 5.5999999999999996e+00 0.0000000000000000e+00
0.0000000000000000e+00 5.5999999999999996e+00 0.0000000000000000e+00
0.0000000000000000e+00 5.5999999999999996e+00 0.0000000000000000e+00
ITEM: ATOMS x y z
0.68125 0.68125 0.68125
3.40625 3.40625 0.68125
3.40625 0.68125 3.40625
0.68125 3.40625 3.40625
4.76875 2.04375 2.04375
2.04375 4.76875 2.04375
2.04375 2.04375 4.76875
4.76875 4.76875 4.76875
ITEM: TIMESTEP
5730
ITEM: NUMBER OF ATOMS
8
ITEM: BOX BOUNDS xy xz yz pp pp pp
0.0000000000000000e+00 5.5999999999999996e+00 0.0000000000000000e+00
0.0000000000000000e+00 5.5999999999999996e+00 0.0000000000000000e+00
0.0000000000000000e+00 5.5999999999999996e+00 0.0000000000000000e+00
ITEM: ATOMS x y z
0.68125 0.68125 0.68125
3.40625 3.40625 0.68125
3.40625 0.68125 3.40625
0.68125 3.40625 3.40625
4.76875 2.04375 2.04375
2.04375 4.76875 2.04375
2.04375 2.04375 4.76875
4.76875 4.76875 4.76875
ITEM: TIMESTEP
5740
ITEM: NUMBER OF ATOMS
8
ITEM: BOX BOUNDS xy xz yz pp pp pp
0.0000000000000000e+00 5.5999999999999996e+00 0.0000000000000000e+00
0.0000000000000000e+00 5.5999999999999996e+00 0.0000000000000000e+00
0.0000000000000000e+00 5.5999999999999996e+00 0.0000000000000000e+00
ITEM: ATOMS x y z
0.68125 0.68125 0.68125
3.40625 3.40625 0.68125
3.40625 0.68125 3.40625
0.68125 3.40625 3.40625
4.76875 2.04375 2.04375
2.04375 4.76875 2.04375
2.04375 2.04375 4.76875
4.76875 4.76875 4.76875
ITEM: TIMESTEP
5750
ITEM: NUMBER OF ATOMS
8
ITEM: BOX BOUNDS xy xz yz pp pp pp
0.0000000000000000e+00 5.5999999999999996e+00 0.0000000000000000e+00
0.0000000000000000e+00 5.5999999999999996e+00 0.0000000000000000e+00
0.0000000000000000e+00 5.5999999999999996e+00 0.0000000000000000e+00
ITEM: ATOMS x y z
0.68125 0.68125 0.68125
3.40625 3.40625 0.68125
3.40625 0.68125 3.40625
0.68125 3.40625 3.40625
4.76875 2.04375 2.04375
2.04375 4.76875 2.04375
2.04375 2.04375 4.76875
4.76875 4.76875 4.76875
ITEM: TIMESTEP
5760
ITEM: NUMBER OF ATOMS
8
ITEM: BOX BOUNDS xy xz yz pp pp pp
0.0000000000000000e+00 5.5999999999999996e+00 0.0000000000000000e+00
0.0000000000000000e+00 5.5999999999999996e+00 0.0000000000000000e+00
0.0000000000000000e+00 5.5999999999999996e+00 0.0000000000000000e+00
ITEM: ATOMS x y z
0.68125 0.68125 0.68125
3.40625 3.40625 0.68125
3.40625 0.68125 3.40625
0.68125 3.40625 3.40625
4.76875 2.04375 2.04375
2.04375 4.76875 2.04375
2.04375 2.04375 4.76875
4.76875 4.76875 4.76875
ITEM: TIMESTEP
5770
ITEM: NUMBER OF ATOMS
8
ITEM: BOX BOUNDS xy xz yz pp pp pp
0.0000000000000000e+00 5.5999999999999996e+00 0.0000000000000000e+00
0.0000000000000000e+00 5.5999999999999996e+00 0.0000000000000000e+00
0.0000000000000000e+00 5.5999999999999996e+00 0.0000000000000000e+00
ITEM: ATOMS x y z
0.68125 0.68125 0.68125
3.40625 3.40625 0.68125
3.40625 0.68125 3.40625
0.68125 3.40625 3.40625
4.76875 2.04375 2.04375
2.04375 4.76875 2.04375
2.04375 2.04375 4.76875
4.76875 4.76875 4.76875
ITEM: TIMESTEP
5780
ITEM: NUMBER OF ATOMS
8
ITEM: BOX BOUNDS xy xz yz pp pp pp
0.0000000000000000e+00 5.5999999999999996e+00 0.0000000000000000e+00
0.0000000000000000e+00 5.5999999999999996e+00 0.0000000000000000e+00
0.0000000000000000e+00 5.5999999999999996e+00 0.0000000000000000e+00
ITEM: ATOMS x y z
0.68125 0.68125 0.68125
3.40625 3.40625 0.68125
3.40625 0.68125 3.40625
0.68125 3.40625 3.40625
4.76875 2.04375 2.04375
2.04375 4.76875 2.04375
2.04375 2.04375 4.76875
4.76875 4.76875 4.76875
ITEM: TIMESTEP
5790
ITEM: NUMBER OF ATOMS
8
ITEM: BOX BOUNDS xy xz yz pp pp pp
0.0000000000000000e+00 5.5999999999999996e+00 0.0000000000000000e+00
0.0000000000000000e+00 5.5999999999999996e+00 0.0000000000000000e+00
0.0000000000000000e+00 5.5999999999999996e+00 0.0000000000000000e+00
ITEM: ATOMS x y z
0.68125 0.68125 0.68125
3.40625 3.40625 0.68125
3.40625 0.68125 3.40625
0.68125 3.40625 3.40625
4.76875 2.04375 2.04375
2.04375 4.76875 2.04375
2.04375 2.04375 4.76875
4.76875 4.76875 4.76875
ITEM: TIMESTEP
5800
ITEM: NUMBER OF ATOMS
8
ITEM: BOX BOUNDS xy xz yz pp pp pp
0.0000000000000000e+00 5.5999999999999996e+00 0.0000000000000000e+00
0.0000000000000000e+00 5.5999999999999996e+00 0.0000000000000000e+00
0.0000000000000000e+00 5.5999999999999996e+00 0.0000000000000000e+00
ITEM: ATOMS x y z
0.68125 0.68125 0.68125
3.40625 3.40625 0.68125
3.40625 0.68125 3.40625
0.68125 3.40625 3.40625
4.76875 2.04375 2.04375
2.04375 4.76875 2.04375
2.04375 2.04375 4.76875
4.76875 4.76875 4.76875
ITEM: TIMESTEP
5810
ITEM: NUMBER OF ATOMS
8
ITEM: BOX BOUNDS xy xz yz pp pp pp
0.0000000000000000e+00 5.5999999999999996e+00 0.0000000000000000e+00
0.0000000000000000e+00 5.5999999999999996e+00 0.0000000000000000e+00
0.0000000000000000e+00 5.5999999999999996e+00 0.0000000000000000e+00
ITEM: ATOMS x y z
0.68125 0.68125 0.68125
3.40625 3.40625 0.68125
3.40625 0.68125 3.40625
0.68125 3.40625 3.40625
4.76875 2.04375 2.04375
2.04375 4.76875 2.04375
2.04375 2.04375 4.76875
4.76875 4.76875 4.76875
ITEM: TIMESTEP
5820
ITEM: NUMBER OF ATOMS
8
ITEM: BOX BOUNDS xy xz yz pp pp pp
0.0000000000000000e+00 5.5999999999999996e+00 0.0000000000000000e+00
0.0000000000000000e+00 5.5999999999999996e+00 0.0000000000000000e+00
0.0000000000000000e+00 5.5999999999999996e+00 0.0000000000000000e+00
ITEM: ATOMS x y z
0.68125 0.68125 0.68125
3.40625 3.40625 0.68125
3.40625 0.68125 3.40625
0.68125 3.40625 3.40625
4.76875 2.04375 2.04375
2.04375 4.76875 2.04375
2.04375 2.04375 4.76875
4.76875 4.76875 4.76875
ITEM: TIMESTEP
5830
ITEM: NUMBER OF ATOMS
8
ITEM: BOX BOUNDS xy xz yz pp pp pp
0.0000000000000000e+00 5.5999999999999996e+00 0.0000000000000000e+00
0.0000000000000000e+00 5.5999999999999996e+00 0.0000000000000000e+00
0.0000000000000000e+00 5.5999999999999996e+00 0.0000000000000000e+00
ITEM: ATOMS x y z
0.68125 0.68125 0.68125
3.40625 3.40625 0.68125
3.40625 0.68125 3.40625
0.68125 3.40625 3.40625
4.76875 2.04375 2.04375
2.04375 4.76875 2.04375
2.04375 2.04375 4.76875
4.76875 4.76875 4.76875
ITEM: TIMESTEP
5840
ITEM: NUMBER OF ATOMS
8
ITEM: BOX BOUNDS xy xz yz pp pp pp
0.0000000000000000e+00 5.5999999999999996e+00 0.0000000000000000e+00
0.0000000000000000e+00 5.5999999999999996e+00 0.0000000000000000e+00
0.0000000000000000e+00 5.5999999999999996e+00 0.0000000000000000e+00
ITEM: ATOMS x y z
0.68125 0.68125 0.68125
3.40625 3.40625 0.68125
3.40625 0.68125 3.40625
0.68125 3.40625 3.40625
4.76875 2.04375 2.04375
2.04375 4.76875 2.04375
2.04375 2.04375 4.76875
4.76875 4.76875 4.76875
ITEM: TIMESTEP
5850
ITEM: NUMBER OF ATOMS
8
ITEM: BOX BOUNDS xy xz yz pp pp pp
0.0000000000000000e+00 5.5999999999999996e+00 0.0000000000000000e+00
0.0000000000000000e+00 5.5999999999999996e+00 0.0000000000000000e+00
0.0000000000000000e+00 5.5999999999999996e+00 0.0000000000000000e+00
ITEM: ATOMS x y z
0.68125 0.68125 0.68125
3.40625 3.40625 0.68125
3.40625 0.68125 3.40625
0.68125 3.40625 3.40625
4.76875 2.04375 2.04375
2.04375 4.76875 2.04375
2.04375 2.04375 4.76875
4.76875 4.76875 4.76875
ITEM: TIMESTEP
5860
ITEM: NUMBER OF ATOMS
8
ITEM: BOX BOUNDS xy xz yz pp pp pp
0.0000000000000000e+00 5.5999999999999996e+00 0.0000000000000000e+00
0.0000000000000000e+00 5.5999999999999996e+00 0.0000000000000000e+00
0.0000000000000000e+00 5.5999999999999996e+00 0.0000000000000000e+00
ITEM: ATOMS x y z
0.68125 0.68125 0.68125
3.40625 3.40625 0.68125
3.40625 0.68125 3.40625
0.68125 3.40625 3.40625
4.76875 2.04375 2.04375
2.04375 4.76875 2.04375
2.04375 2.04375 4.76875
4.76875 4.76875 4.76875
ITEM: TIMESTEP
5870
ITEM: NUMBER OF ATOMS
8
ITEM: BOX BOUNDS xy xz yz pp pp pp
0.0000000000000000e+00 5.5999999999999996e+00 0.0000000000000000e+00
0.0000000000000000e+00 5.5999999999999996e+00 0.0000000000000000e+00
0.0000000000000000e+00 5.5999999999999996e+00 0.0000000000000000e+00
ITEM: ATOMS x y z
0.68125 0.68125 0.68125
3.40625 3.40625 0.68125
3.40625 0.68125 3.40625
0.68125 3.40625 3.40625
4.76875 2.04375 2.04375
2.04375 4.76875 2.04375
2.04375 2.04375 4.76875
4.76875 4.76875 4.76875
ITEM: TIMESTEP
5880
ITEM: NUMBER OF ATOMS
8
ITEM: BOX BOUNDS xy xz yz pp pp pp
0.0000000000000000e+00 5.5999999999999996e+00 0.0000000000000000e+00
0.0000000000000000e+00 5.5999999999999996e+00 0.0000000000000000e+00
0.0000000000000000e+00 5.5999999999999996e+00 0.0000000000000000e+00
ITEM: ATOMS x y z
0.68125 0.68125 0.68125
3.40625 3.40625 0.68125
3.40625 0.68125 3.40625
0.68125 3.40625 3.40625
4.76875 2.04375 2.04375
2.04375 4.76875 2.04375
2.04375 2.04375 4.76875
4.76875 4.76875 4.76875
ITEM: TIMESTEP
5890
ITEM: NUMBER OF ATOMS
8
ITEM: BOX BOUNDS xy xz yz pp pp pp
0.0000000000000000e+00 5.5999999999999996e+00 0.0000000000000000e+00
0.0000000000000000e+00 5.5999999999999996e+00 0.0000000000000000e+00
0.0000000000000000e+00 5.5999999999999996e+00 0.0000000000000000e+00
ITEM: ATOMS x y z
0.68125 0.68125 0.68125
3.40625 3.40625 0.68125
3.40625 0.68125 3.40625
0.68125 3.40625 3.40625
4.76875 2.04375 2.04375
2.04375 4.76875 2.04375
2.04375 2.04375 4.76875
4.76875 4.76875 4.76875
ITEM: TIMESTEP
5900
ITEM: NUMBER OF ATOMS
8
ITEM: BOX BOUNDS xy xz yz pp pp pp
0.0000000000000000e+00 5.5999999999999996e+00 0.0000000000000000e+00
0.0000000000000000e+00 5.5999999999999996e+00 0.0000000000000000e+00
0.0000000000000000e+00 5.5999999999999996e+00 0.0000000000000000e+00
ITEM: ATOMS x y z
0.68125 0.68125 0.68125
3.40625 3.40625 0.68125
3.40625 0.68125 3.40625
0.68125 3.40625 3.40625
4.76875 2.04375 2.04375
2.04375 4.76875 2.04375
2.04375 2.04375 4.76875
4.76875 4.76875 4.76875
ITEM: TIMESTEP
5910
ITEM: NUMBER OF ATOMS
8
ITEM: BOX BOUNDS xy xz yz pp pp pp
0.0000000000000000e+00 5.5999999999999996e+00 0.0000000000000000e+00
0.0000000000000000e+00 5.5999999999999996e+00 0.0000000000000000e+00
0.0000000000000000e+00 5.5999999999999996e+00 0.0000000000000000e+00
ITEM: ATOMS x y z
0.68125 0.68125 0.68125
3.40625 3.40625 0.68125
3.40625 0.68125 3.40625
0.68125 3.40625 3.40625
4.76875 2.04375 2.04375
2.04375 4.76875 2.04375
2.04375 2.04375 4.76875
4.76875 4.76875 4.76875
ITEM: TIMESTEP
5920
ITEM: NUMBER OF ATOMS
8
ITEM: BOX BOUNDS xy xz yz pp pp pp
0.0000000000000000e+00 5.5999999999999996e+00 0.0000000000000000e+00
0.0000000000000000e+00 5.5999999999999996e+00 0.0000000000000000e+00
0.0000000000000000e+00 5.5999999999999996e+00 0.0000000000000000e+00
ITEM: ATOMS x y z
0.68125 0.68125 0.68125
3.40625 3.40625 0.68125
3.40625 0.68125 3.40625
0.68125 3.40625 3.40625
4.76875 2.04375 2.04375
2.04375 4.76875 2.04375
2.04375 2.04375 4.76875
4.76875 4.76875 4.76875
ITEM: TIMESTEP
5930
ITEM: NUMBER OF ATOMS
8
ITEM: BOX BOUNDS xy xz yz pp pp pp
0.0000000000000000e+00 5.5999999999999996e+00 0.0000000000000000e+00
0.0000000000000000e+00 5.5999999999999996e+00 0.0000000000000000e+00
0.0000000000000000e+00 5.5999999999999996e+00 0.0000000000000000e+00
ITEM: ATOMS x y z
0.68125 0.68125 0.68125
3.40625 3.40625 0.68125
3.40625 0.68125 3.40625
0.68125 3.40625 3.40625
4.76875 2.04375 2.04375
2.04375 4.76875 2.04375
2.04375 2.04375 4.76875
4.76875 4.76875 4.76875
ITEM: TIMESTEP
5940
ITEM: NUMBER OF ATOMS
8
ITEM: BOX BOUNDS xy xz yz pp pp pp
0.0000000000000000e+00 5.5999999999999996e+00 0.0000000000000000e+00
0.0000000000000000e+00 5.5999999999999996e+00 0.0000000000000000e+00
0.0000000000000000e+00 5.5999999999999996e+00 0.0000000000000000e+00
ITEM: ATOMS x y z
0.68125 0.68125 0.68125
3.40625 3.40625 0.68125
3.40625 0.68125 3.40625
0.68125 3.40625 3.40625
4.76875 2.04375 2.04375
2.04375 4.76875 2.04375
2.04375 2.04375 4.76875
4.76875 4.76875 4.76875
ITEM: TIMESTEP
5950
ITEM: NUMBER OF ATOMS
8
ITEM: BOX BOUNDS xy xz yz pp pp pp
0.0000000000000000e+00 5.5999999999999996e+00 0.0000000000000000e+00
0.0000000000000000e+00 5.5999999999999996e+00 0.0000000000000000e+00
0.0000000000000000e+00 5.5999999999999996e+00 0.0000000000000000e+00
ITEM: ATOMS x y z
0.68125 0.68125 0.68125
3.40625 3.40625 0.68125
3.40625 0.68125 3.40625
0.68125 3.40625 3.40625
4.76875 2.04375 2.04375
2.04375 4.76875 2.04375
2.04375 2.04375 4.76875
4.76875 4.76875 4.76875
ITEM: TIMESTEP
5960
ITEM: NUMBER OF ATOMS
8
ITEM: BOX BOUNDS xy xz yz pp pp pp
0.0000000000000000e+00 5.5999999999999996e+00 0.0000000000000000e+00
0.0000000000000000e+00 5.5999999999999996e+00 0.0000000000000000e+00
0.0000000000000000e+00 5.5999999999999996e+00 0.0000000000000000e+00
ITEM: ATOMS x y z
0.68125 0.68125 0.68125
3.40625 3.40625 0.68125
3.40625 0.68125 3.40625
0.68125 3.40625 3.40625
4.76875 2.04375 2.04375
2.04375 4.76875 2.04375
2.04375 2.04375 4.76875
4.76875 4.76875 4.76875
ITEM: TIMESTEP
5970
ITEM: NUMBER OF ATOMS
8
ITEM: BOX BOUNDS xy xz yz pp pp pp
0.0000000000000000e+00 5.5999999999999996e+00 0.0000000000000000e+00
0.0000000000000000e+00 5.5999999999999996e+00 0.0000000000000000e+00
0.0000000000000000e+00 5.5999999999999996e+00 0.0000000000000000e+00
ITEM: ATOMS x y z
0.68125 0.68125 0.68125
3.40625 3.40625 0.68125
3.40625 0.68125 3.40625
0.68125 3.40625 3.40625
4.76875 2.04375 2.04375
2.04375 4.76875 2.04375
2.04375 2.04375 4.76875
4.76875 4.76875 4.76875
ITEM: TIMESTEP
5980
ITEM: NUMBER OF ATOMS
8
ITEM: BOX BOUNDS xy xz yz pp pp pp
0.0000000000000000e+00 5.5999999999999996e+00 0.0000000000000000e+00
0.0000000000000000e+00 5.5999999999999996e+00 0.0000000000000000e+00
0.0000000000000000e+00 5.5999999999999996e+00 0.0000000000000000e+00
ITEM: ATOMS x y z
0.68125 0.68125 0.68125
3.40625 3.40625 0.68125
3.40625 0.68125 3.40625
0.68125 3.40625 3.40625
4.76875 2.04375 2.04375
2.04375 4.76875 2.04375
2.04375 2.04375 4.76875
4.76875 4.76875 4.76875
ITEM: TIMESTEP
5990
ITEM: NUMBER OF ATOMS
8
ITEM: BOX BOUNDS xy xz yz pp pp pp
0.0000000000000000e+00 5.5999999999999996e+00 0.0000000000000000e+00
0.0000000000000000e+00 5.5999999999999996e+00 0.0000000000000000e+00
0.0000000000000000e+00 5.5999999999999996e+00 0.0000000000000000e+00
ITEM: ATOMS x y z
0.68125 0.68125 0.68125
3.40625 3.40625 0.68125
3.40625 0.68125 3.40625
0.68125 3.40625 3.40625
4.76875 2.04375 2.04375
2.04375 4.76875 2.04375
2.04375 2.04375 4.76875
4.76875 4.76875 4.76875
ITEM: TIMESTEP
6000
ITEM: NUMBER OF ATOMS
8
ITEM: BOX BOUNDS xy xz yz pp pp pp
0.0000000000000000e+00 5.5999999999999996e+00 0.0000000000000000e+00
0.0000000000000000e+00 5.5999999999999996e+00 0.0000000000000000e+00
0.0000000000000000e+00 5.5999999999999996e+00 0.0000000000000000e+00
ITEM: ATOMS x y z
0.68125 0.68125 0.68125
3.40625 3.40625 0.68125
3.40625 0.68125 3.40625
0.68125 3.40625 3.40625
4.76875 2.04375 2.04375
2.04375 4.76875 2.04375
2.04375 2.04375 4.76875
4.76875 4.76875 4.76875
ITEM: TIMESTEP
6010
ITEM: NUMBER OF ATOMS
8
ITEM: BOX BOUNDS xy xz yz pp pp pp
0.0000000000000000e+00 5.5999999999999996e+00 0.0000000000000000e+00
0.0000000000000000e+00 5.5999999999999996e+00 0.0000000000000000e+00
0.0000000000000000e+00 5.5999999999999996e+00 0.0000000000000000e+00
ITEM: ATOMS x y z
0.68125 0.68125 0.68125
3.40625 3.40625 0.68125
3.40625 0.68125 3.40625
0.68125 3.40625 3.40625
4.76875 2.04375 2.04375
2.04375 4.76875 2.04375
2.04375 2.04375 4.76875
4.76875 4.76875 4.76875
ITEM: TIMESTEP
6020
ITEM: NUMBER OF ATOMS
8
ITEM: BOX BOUNDS xy xz yz pp pp pp
0.0000000000000000e+00 5.5999999999999996e+00 0.0000000000000000e+00
0.0000000000000000e+00 5.5999999999999996e+00 0.0000000000000000e+00
0.0000000000000000e+00 5.5999999999999996e+00 0.0000000000000000e+00
ITEM: ATOMS x y z
0.68125 0.68125 0.68125
3.40625 3.40625 0.68125
3.40625 0.68125 3.40625
0.68125 3.40625 3.40625
4.76875 2.04375 2.04375
2.04375 4.76875 2.04375
2.04375 2.04375 4.76875
4.76875 4.76875 4.76875
ITEM: TIMESTEP
6030
ITEM: NUMBER OF ATOMS
8
ITEM: BOX BOUNDS xy xz yz pp pp pp
0.0000000000000000e+00 5.5999999999999996e+00 0.0000000000000000e+00
0.0000000000000000e+00 5.5999999999999996e+00 0.0000000000000000e+00
0.0000000000000000e+00 5.5999999999999996e+00 0.0000000000000000e+00
ITEM: ATOMS x y z
0.68125 0.68125 0.68125
3.40625 3.40625 0.68125
3.40625 0.68125 3.40625
0.68125 3.40625 3.40625
4.76875 2.04375 2.04375
2.04375 4.76875 2.04375
2.04375 2.04375 4.76875
4.76875 4.76875 4.76875
ITEM: TIMESTEP
6040
ITEM: NUMBER OF ATOMS
8
ITEM: BOX BOUNDS xy xz yz pp pp pp
0.0000000000000000e+00 5.5999999999999996e+00 0.0000000000000000e+00
0.0000000000000000e+00 5.5999999999999996e+00 0.0000000000000000e+00
0.0000000000000000e+00 5.5999999999999996e+00 0.0000000000000000e+00
ITEM: ATOMS x y z
0.68125 0.68125 0.68125
3.40625 3.40625 0.68125
3.40625 0.68125 3.40625
0.68125 3.40625 3.40625
4.76875 2.04375 2.04375
2.04375 4.76875 2.04375
2.04375 2.04375 4.76875
4.76875 4.76875 4.76875
ITEM: TIMESTEP
6050
ITEM: NUMBER OF ATOMS
8
ITEM: BOX BOUNDS xy xz yz pp pp pp
0.0000000000000000e+00 5.5999999999999996e+00 0.0000000000000000e+00
0.0000000000000000e+00 5.5999999999999996e+00 0.0000000000000000e+00
0.0000000000000000e+00 5.5999999999999996e+00 0.0000000000000000e+00
ITEM: ATOMS x y z
0.68125 0.68125 0.68125
3.40625 3.40625 0.68125
3.40625 0.68125 3.40625
0.68125 3.40625 3.40625
4.76875 2.04375 2.04375
2.04375 4.76875 2.04375
2.04375 2.04375 4.76875
4.76875 4.76875 4.76875
ITEM: TIMESTEP
6060
ITEM: NUMBER OF ATOMS
8
ITEM: BOX BOUNDS xy xz yz pp pp pp
0.0000000000000000e+00 5.5999999999999996e+00 0.0000000000000000e+00
0.0000000000000000e+00 5.5999999999999996e+00 0.0000000000000000e+00
0.0000000000000000e+00 5.5999999999999996e+00 0.0000000000000000e+00
ITEM: ATOMS x y z
0.68125 0.68125 0.68125
3.40625 3.40625 0.68125
3.40625 0.68125 3.40625
0.68125 3.40625 3.40625
4.76875 2.04375 2.04375
2.04375 4.76875 2.04375
2.04375 2.04375 4.76875
4.76875 4.76875 4.76875
ITEM: TIMESTEP
6070
ITEM: NUMBER OF ATOMS
8
ITEM: BOX BOUNDS xy xz yz pp pp pp
0.0000000000000000e+00 5.5999999999999996e+00 0.0000000000000000e+00
0.0000000000000000e+00 5.5999999999999996e+00 0.0000000000000000e+00
0.0000000000000000e+00 5.5999999999999996e+00 0.0000000000000000e+00
ITEM: ATOMS x y z
0.68125 0.68125 0.68125
3.40625 3.40625 0.68125
3.40625 0.68125 3.40625
0.68125 3.40625 3.40625
4.76875 2.04375 2.04375
2.04375 4.76875 2.04375
2.04375 2.04375 4.76875
4.76875 4.76875 4.76875
ITEM: TIMESTEP
6080
ITEM: NUMBER OF ATOMS
8
ITEM: BOX BOUNDS xy xz yz pp pp pp
0.0000000000000000e+00 5.5999999999999996e+00 0.0000000000000000e+00
0.0000000000000000e+00 5.5999999999999996e+00 0.0000000000000000e+00
0.0000000000000000e+00 5.5999999999999996e+00 0.0000000000000000e+00
ITEM: ATOMS x y z
0.68125 0.68125 0.68125
3.40625 3.40625 0.68125
3.40625 0.68125 3.40625
0.68125 3.40625 3.40625
4.76875 2.04375 2.04375
2.04375 4.76875 2.04375
2.04375 2.04375 4.76875
4.76875 4.76875 4.76875
ITEM: TIMESTEP
6090
ITEM: NUMBER OF ATOMS
8
ITEM: BOX BOUNDS xy xz yz pp pp pp
0.0000000000000000e+00 5.5999999999999996e+00 0.0000000000000000e+00
0.0000000000000000e+00 5.5999999999999996e+00 0.0000000000000000e+00
0.0000000000000000e+00 5.5999999999999996e+00 0.0000000000000000e+00
ITEM: ATOMS x y z
0.68125 0.68125 0.68125
3.40625 3.40625 0.68125
3.40625 0.68125 3.40625
0.68125 3.40625 3.40625
4.76875 2.04375 2.04375
2.04375 4.76875 2.04375
2.04375 2.04375 4.76875
4.76875 4.76875 4.76875
ITEM: TIMESTEP
6100
ITEM: NUMBER OF ATOMS
8
ITEM: BOX BOUNDS xy xz yz pp pp pp
0.0000000000000000e+00 5.5999999999999996e+00 0.0000000000000000e+00
0.0000000000000000e+00 5.5999999999999996e+00 0.0000000000000000e+00
0.0000000000000000e+00 5.5999999999999996e+00 0.0000000000000000e+00
ITEM: ATOMS x y z
0.68125 0.68125 0.68125
3.40625 3.40625 0.68125
3.40625 0.68125 3.40625
0.68125 3.40625 3.40625
4.76875 2.04375 2.04375
2.04375 4.76875 2.04375
2.04375 2.04375 4.76875
4.76875 4.76875 4.76875
ITEM: TIMESTEP
6110
ITEM: NUMBER OF ATOMS
8
ITEM: BOX BOUNDS xy xz yz pp pp pp
0.0000000000000000e+00 5.5999999999999996e+00 0.0000000000000000e+00
0.0000000000000000e+00 5.5999999999999996e+00 0.0000000000000000e+00
0.0000000000000000e+00 5.5999999999999996e+00 0.0000000000000000e+00
ITEM: ATOMS x y z
0.68125 0.68125 0.68125
3.40625 3.40625 0.68125
3.40625 0.68125 3.40625
0.68125 3.40625 3.40625
4.76875 2.04375 2.04375
2.04375 4.76875 2.04375
2.04375 2.04375 4.76875
4.76875 4.76875 4.76875
ITEM: TIMESTEP
6120
ITEM: NUMBER OF ATOMS
8
ITEM: BOX BOUNDS xy xz yz pp pp pp
0.0000000000000000e+00 5.5999999999999996e+00 0.0000000000000000e+00
0.0000000000000000e+00 5.5999999999999996e+00 0.0000000000000000e+00
0.0000000000000000e+00 5.5999999999999996e+00 0.0000000000000000e+00
ITEM: ATOMS x y z
0.68125 0.68125 0.68125
3.40625 3.40625 0.68125
3.40625 0.68125 3.40625
0.68125 3.40625 3.40625
4.76875 2.04375 2.04375
2.04375 4.76875 2.04375
2.04375 2.04375 4.76875
4.76875 4.76875 4.76875
ITEM: TIMESTEP
6130
ITEM: NUMBER OF ATOMS
8
ITEM: BOX BOUNDS xy xz yz pp pp pp
0.0000000000000000e+00 5.5999999999999996e+00 0.0000000000000000e+00
0.0000000000000000e+00 5.5999999999999996e+00 0.0000000000000000e+00
0.0000000000000000e+00 5.5999999999999996e+00 0.0000000000000000e+00
ITEM: ATOMS x y z
0.68125 0.68125 0.68125
3.40625 3.40625 0.68125
3.40625 0.68125 3.40625
0.68125 3.40625 3.40625
4.76875 2.04375 2.04375
2.04375 4.76875 2.04375
2.04375 2.04375 4.76875
4.76875 4.76875 4.76875
ITEM: TIMESTEP
6140
ITEM: NUMBER OF ATOMS
8
ITEM: BOX BOUNDS xy xz yz pp pp pp
0.0000000000000000e+00 5.5999999999999996e+00 0.0000000000000000e+00
0.0000000000000000e+00 5.5999999999999996e+00 0.0000000000000000e+00
0.0000000000000000e+00 5.5999999999999996e+00 0.0000000000000000e+00
ITEM: ATOMS x y z
0.68125 0.68125 0.68125
3.40625 3.40625 0.68125
3.40625 0.68125 3.40625
0.68125 3.40625 3.40625
4.76875 2.04375 2.04375
2.04375 4.76875 2.04375
2.04375 2.04375 4.76875
4.76875 4.76875 4.76875
ITEM: TIMESTEP
6150
ITEM: NUMBER OF ATOMS
8
ITEM: BOX BOUNDS xy xz yz pp pp pp
0.0000000000000000e+00 5.5999999999999996e+00 0.0000000000000000e+00
0.0000000000000000e+00 5.5999999999999996e+00 0.0000000000000000e+00
0.0000000000000000e+00 5.5999999999999996e+00 0.0000000000000000e+00
ITEM: ATOMS x y z
0.68125 0.68125 0.68125
3.40625 3.40625 0.68125
3.40625 0.68125 3.40625
0.68125 3.40625 3.40625
4.76875 2.04375 2.04375
2.04375 4.76875 2.04375
2.04375 2.04375 4.76875
4.76875 4.76875 4.76875
ITEM: TIMESTEP
6160
ITEM: NUMBER OF ATOMS
8
ITEM: BOX BOUNDS xy xz yz pp pp pp
0.0000000000000000e+00 5.5999999999999996e+00 0.0000000000000000e+00
0.0000000000000000e+00 5.5999999999999996e+00 0.0000000000000000e+00
0.0000000000000000e+00 5.5999999999999996e+00 0.0000000000000000e+00
ITEM: ATOMS x y z
0.68125 0.68125 0.68125
3.40625 3.40625 0.68125
3.40625 0.68125 3.40625
0.68125 3.40625 3.40625
4.76875 2.04375 2.04375
2.04375 4.76875 2.04375
2.04375 2.04375 4.76875
4.76875 4.76875 4.76875
ITEM: TIMESTEP
6170
ITEM: NUMBER OF ATOMS
8
ITEM: BOX BOUNDS xy xz yz pp pp pp
0.0000000000000000e+00 5.5999999999999996e+00 0.0000000000000000e+00
0.0000000000000000e+00 5.5999999999999996e+00 0.0000000000000000e+00
0.0000000000000000e+00 5.5999999999999996e+00 0.0000000000000000e+00
ITEM: ATOMS x y z
0.68125 0.68125 0.68125
3.40625 3.40625 0.68125
3.40625 0.68125 3.40625
0.68125 3.40625 3.40625
4.76875 2.04375 2.04375
2.04375 4.76875 2.04375
2.04375 2.04375 4.76875
4.76875 4.76875 4.76875
ITEM: TIMESTEP
6180
ITEM: NUMBER OF ATOMS
8
ITEM: BOX BOUNDS xy xz yz pp pp pp
0.0000000000000000e+00 5.5999999999999996e+00 0.0000000000000000e+00
0.0000000000000000e+00 5.5999999999999996e+00 0.0000000000000000e+00
0.0000000000000000e+00 5.5999999999999996e+00 0.0000000000000000e+00
ITEM: ATOMS x y z
0.68125 0.68125 0.68125
3.40625 3.40625 0.68125
3.40625 0.68125 3.40625
0.68125 3.40625 3.40625
4.76875 2.04375 2.04375
2.04375 4.76875 2.04375
2.04375 2.04375 4.76875
4.76875 4.76875 4.76875
ITEM: TIMESTEP
6190
ITEM: NUMBER OF ATOMS
8
ITEM: BOX BOUNDS xy xz yz pp pp pp
0.0000000000000000e+00 5.5999999999999996e+00 0.0000000000000000e+00
0.0000000000000000e+00 5.5999999999999996e+00 0.0000000000000000e+00
0.0000000000000000e+00 5.5999999999999996e+00 0.0000000000000000e+00
ITEM: ATOMS x y z
0.68125 0.68125 0.68125
3.40625 3.40625 0.68125
3.40625 0.68125 3.40625
0.68125 3.40625 3.40625
4.76875 2.04375 2.04375
2.04375 4.76875 2.04375
2.04375 2.04375 4.76875
4.76875 4.76875 4.76875
ITEM: TIMESTEP
6200
ITEM: NUMBER OF ATOMS
8
ITEM: BOX BOUNDS xy xz yz pp pp pp
0.0000000000000000e+00 5.5999999999999996e+00 0.0000000000000000e+00
0.0000000000000000e+00 5.5999999999999996e+00 0.0000000000000000e+00
0.0000000000000000e+00 5.5999999999999996e+00 0.0000000000000000e+00
ITEM: ATOMS x y z
0.68125 0.68125 0.68125
3.40625 3.40625 0.68125
3.40625 0.68125 3.40625
0.68125 3.40625 3.40625
4.76875 2.04375 2.04375
2.04375 4.76875 2.04375
2.04375 2.04375 4.76875
4.76875 4.76875 4.76875
ITEM: TIMESTEP
6210
ITEM: NUMBER OF ATOMS
8
ITEM: BOX BOUNDS xy xz yz pp pp pp
0.0000000000000000e+00 5.5999999999999996e+00 0.0000000000000000e+00
0.0000000000000000e+00 5.5999999999999996e+00 0.0000000000000000e+00
0.0000000000000000e+00 5.5999999999999996e+00 0.0000000000000000e+00
ITEM: ATOMS x y z
0.68125 0.68125 0.68125
3.40625 3.40625 0.68125
3.40625 0.68125 3.40625
0.68125 3.40625 3.40625
4.76875 2.04375 2.04375
2.04375 4.76875 2.04375
2.04375 2.04375 4.76875
4.76875 4.76875 4.76875
ITEM: TIMESTEP
6220
ITEM: NUMBER OF ATOMS
8
ITEM: BOX BOUNDS xy xz yz pp pp pp
0.0000000000000000e+00 5.5999999999999996e+00 0.0000000000000000e+00
0.0000000000000000e+00 5.5999999999999996e+00 0.0000000000000000e+00
0.0000000000000000e+00 5.5999999999999996e+00 0.0000000000000000e+00
ITEM: ATOMS x y z
0.68125 0.68125 0.68125
3.40625 3.40625 0.68125
3.40625 0.68125 3.40625
0.68125 3.40625 3.40625
4.76875 2.04375 2.04375
2.04375 4.76875 2.04375
2.04375 2.04375 4.76875
4.76875 4.76875 4.76875
ITEM: TIMESTEP
6230
ITEM: NUMBER OF ATOMS
8
ITEM: BOX BOUNDS xy xz yz pp pp pp
0.0000000000000000e+00 5.5999999999999996e+00 0.0000000000000000e+00
0.0000000000000000e+00 5.5999999999999996e+00 0.0000000000000000e+00
0.0000000000000000e+00 5.5999999999999996e+00 0.0000000000000000e+00
ITEM: ATOMS x y z
0.68125 0.68125 0.68125
3.40625 3.40625 0.68125
3.40625 0.68125 3.40625
0.68125 3.40625 3.40625
4.76875 2.04375 2.04375
2.04375 4.76875 2.04375
2.04375 2.04375 4.76875
4.76875 4.76875 4.76875
ITEM: TIMESTEP
6240
ITEM: NUMBER OF ATOMS
8
ITEM: BOX BOUNDS xy xz yz pp pp pp
0.0000000000000000e+00 5.5999999999999996e+00 0.0000000000000000e+00
0.0000000000000000e+00 5.5999999999999996e+00 0.0000000000000000e+00
0.0000000000000000e+00 5.5999999999999996e+00 0.0000000000000000e+00
ITEM: ATOMS x y z
0.68125 0.68125 0.68125
3.40625 3.40625 0.68125
3.40625 0.68125 3.40625
0.68125 3.40625 3.40625
4.76875 2.04375 2.04375
2.04375 4.76875 2.04375
2.04375 2.04375 4.76875
4.76875 4.76875 4.76875
ITEM: TIMESTEP
6250
ITEM: NUMBER OF ATOMS
8
ITEM: BOX BOUNDS xy xz yz pp pp pp
0.0000000000000000e+00 5.5999999999999996e+00 0.0000000000000000e+00
0.0000000000000000e+00 5.5999999999999996e+00 0.0000000000000000e+00
0.0000000000000000e+00 5.5999999999999996e+00 0.0000000000000000e+00
ITEM: ATOMS x y z
0.68125 0.68125 0.68125
3.40625 3.40625 0.68125
3.40625 0.68125 3.40625
0.68125 3.40625 3.40625
4.76875 2.04375 2.04375
2.04375 4.76875 2.04375
2.04375 2.04375 4.76875
4.76875 4.76875 4.76875
ITEM: TIMESTEP
6260
ITEM: NUMBER OF ATOMS
8
ITEM: BOX BOUNDS xy xz yz pp pp pp
0.0000000000000000e+00 5.5999999999999996e+00 0.0000000000000000e+00
0.0000000000000000e+00 5.5999999999999996e+00 0.0000000000000000e+00
0.0000000000000000e+00 5.5999999999999996e+00 0.0000000000000000e+00
ITEM: ATOMS x y z
0.68125 0.68125 0.68125
3.40625 3.40625 0.68125
3.40625 0.68125 3.40625
0.68125 3.40625 3.40625
4.76875 2.04375 2.04375
2.04375 4.76875 2.04375
2.04375 2.04375 4.76875
4.76875 4.76875 4.76875
ITEM: TIMESTEP
6270
ITEM: NUMBER OF ATOMS
8
ITEM: BOX BOUNDS xy xz yz pp pp pp
0.0000000000000000e+00 5.5999999999999996e+00 0.0000000000000000e+00
0.0000000000000000e+00 5.5999999999999996e+00 0.0000000000000000e+00
0.0000000000000000e+00 5.5999999999999996e+00 0.0000000000000000e+00
ITEM: ATOMS x y z
0.68125 0.68125 0.68125
3.40625 3.40625 0.68125
3.40625 0.68125 3.40625
0.68125 3.40625 3.40625
4.76875 2.04375 2.04375
2.04375 4.76875 2.04375
2.04375 2.04375 4.76875
4.76875 4.76875 4.76875
ITEM: TIMESTEP
6280
ITEM: NUMBER OF ATOMS
8
ITEM: BOX BOUNDS xy xz yz pp pp pp
0.0000000000000000e+00 5.5999999999999996e+00 0.0000000000000000e+00
0.0000000000000000e+00 5.5999999999999996e+00 0.0000000000000000e+00
0.0000000000000000e+00 5.5999999999999996e+00 0.0000000000000000e+00
ITEM: ATOMS x y z
0.68125 0.68125 0.68125
3.40625 3.40625 0.68125
3.40625 0.68125 3.40625
0.68125 3.40625 3.40625
4.76875 2.04375 2.04375
2.04375 4.76875 2.04375
2.04375 2.04375 4.76875
4.76875 4.76875 4.76875
ITEM: TIMESTEP
6290
ITEM: NUMBER OF ATOMS
8
ITEM: BOX BOUNDS xy xz yz pp pp pp
0.0000000000000000e+00 5.5999999999999996e+00 0.0000000000000000e+00
0.0000000000000000e+00 5.5999999999999996e+00 0.0000000000000000e+00
0.0000000000000000e+00 5.5999999999999996e+00 0.0000000000000000e+00
ITEM: ATOMS x y z
0.68125 0.68125 0.68125
3.40625 3.40625 0.68125
3.40625 0.68125 3.40625
0.68125 3.40625 3.40625
4.76875 2.04375 2.04375
2.04375 4.76875 2.04375
2.04375 2.04375 4.76875
4.76875 4.76875 4.76875
ITEM: TIMESTEP
6300
ITEM: NUMBER OF ATOMS
8
ITEM: BOX BOUNDS xy xz yz pp pp pp
0.0000000000000000e+00 5.5999999999999996e+00 0.0000000000000000e+00
0.0000000000000000e+00 5.5999999999999996e+00 0.0000000000000000e+00
0.0000000000000000e+00 5.5999999999999996e+00 0.0000000000000000e+00
ITEM: ATOMS x y z
0.68125 0.68125 0.68125
3.40625 3.40625 0.68125
3.40625 0.68125 3.40625
0.68125 3.40625 3.40625
4.76875 2.04375 2.04375
2.04375 4.76875 2.04375
2.04375 2.04375 4.76875
4.76875 4.76875 4.76875
ITEM: TIMESTEP
6310
ITEM: NUMBER OF ATOMS
8
ITEM: BOX BOUNDS xy xz yz pp pp pp
0.0000000000000000e+00 5.5999999999999996e+00 0.0000000000000000e+00
0.0000000000000000e+00 5.5999999999999996e+00 0.0000000000000000e+00
0.0000000000000000e+00 5.5999999999999996e+00 0.0000000000000000e+00
ITEM: ATOMS x y z
0.68125 0.68125 0.68125
3.40625 3.40625 0.68125
3.40625 0.68125 3.40625
0.68125 3.40625 3.40625
4.76875 2.04375 2.04375
2.04375 4.76875 2.04375
2.04375 2.04375 4.76875
4.76875 4.76875 4.76875
ITEM: TIMESTEP
6320
ITEM: NUMBER OF ATOMS
8
ITEM: BOX BOUNDS xy xz yz pp pp pp
0.0000000000000000e+00 5.5999999999999996e+00 0.0000000000000000e+00
0.0000000000000000e+00 5.5999999999999996e+00 0.0000000000000000e+00
0.0000000000000000e+00 5.5999999999999996e+00 0.0000000000000000e+00
ITEM: ATOMS x y z
0.68125 0.68125 0.68125
3.40625 3.40625 0.68125
3.40625 0.68125 3.40625
0.68125 3.40625 3.40625
4.76875 2.04375 2.04375
2.04375 4.76875 2.04375
2.04375 2.04375 4.76875
4.76875 4.76875 4.76875
ITEM: TIMESTEP
6330
ITEM: NUMBER OF ATOMS
8
ITEM: BOX BOUNDS xy xz yz pp pp pp
0.0000000000000000e+00 5.5999999999999996e+00 0.0000000000000000e+00
0.0000000000000000e+00 5.5999999999999996e+00 0.0000000000000000e+00
0.0000000000000000e+00 5.5999999999999996e+00 0.0000000000000000e+00
ITEM: ATOMS x y z
0.68125 0.68125 0.68125
3.40625 3.40625 0.68125
3.40625 0.68125 3.40625
0.68125 3.40625 3.40625
4.76875 2.04375 2.04375
2.04375 4.76875 2.04375
2.04375 2.04375 4.76875
4.76875 4.76875 4.76875
ITEM: TIMESTEP
6340
ITEM: NUMBER OF ATOMS
8
ITEM: BOX BOUNDS xy xz yz pp pp pp
0.0000000000000000e+00 5.5999999999999996e+00 0.0000000000000000e+00
0.0000000000000000e+00 5.5999999999999996e+00 0.0000000000000000e+00
0.0000000000000000e+00 5.5999999999999996e+00 0.0000000000000000e+00
ITEM: ATOMS x y z
0.68125 0.68125 0.68125
3.40625 3.40625 0.68125
3.40625 0.68125 3.40625
0.68125 3.40625 3.40625
4.76875 2.04375 2.04375
2.04375 4.76875 2.04375
2.04375 2.04375 4.76875
4.76875 4.76875 4.76875
ITEM: TIMESTEP
6350
ITEM: NUMBER OF ATOMS
8
ITEM: BOX BOUNDS xy xz yz pp pp pp
0.0000000000000000e+00 5.5999999999999996e+00 0.0000000000000000e+00
0.0000000000000000e+00 5.5999999999999996e+00 0.0000000000000000e+00
0.0000000000000000e+00 5.5999999999999996e+00 0.0000000000000000e+00
ITEM: ATOMS x y z
0.68125 0.68125 0.68125
3.40625 3.40625 0.68125
3.40625 0.68125 3.40625
0.68125 3.40625 3.40625
4.76875 2.04375 2.04375
2.04375 4.76875 2.04375
2.04375 2.04375 4.76875
4.76875 4.76875 4.76875
ITEM: TIMESTEP
6360
ITEM: NUMBER OF ATOMS
8
ITEM: BOX BOUNDS xy xz yz pp pp pp
0.0000000000000000e+00 5.5999999999999996e+00 0.0000000000000000e+00
0.0000000000000000e+00 5.5999999999999996e+00 0.0000000000000000e+00
0.0000000000000000e+00 5.5999999999999996e+00 0.0000000000000000e+00
ITEM: ATOMS x y z
0.68125 0.68125 0.68125
3.40625 3.40625 0.68125
3.40625 0.68125 3.40625
0.68125 3.40625 3.40625
4.76875 2.04375 2.04375
2.04375 4.76875 2.04375
2.04375 2.04375 4.76875
4.76875 4.76875 4.76875
ITEM: TIMESTEP
6370
ITEM: NUMBER OF ATOMS
8
ITEM: BOX BOUNDS xy xz yz pp pp pp
0.0000000000000000e+00 5.5999999999999996e+00 0.0000000000000000e+00
0.0000000000000000e+00 5.5999999999999996e+00 0.0000000000000000e+00
0.0000000000000000e+00 5.5999999999999996e+00 0.0000000000000000e+00
ITEM: ATOMS x y z
0.68125 0.68125 0.68125
3.40625 3.40625 0.68125
3.40625 0.68125 3.40625
0.68125 3.40625 3.40625
4.76875 2.04375 2.04375
2.04375 4.76875 2.04375
2.04375 2.04375 4.76875
4.76875 4.76875 4.76875
ITEM: TIMESTEP
6380
ITEM: NUMBER OF ATOMS
8
ITEM: BOX BOUNDS xy xz yz pp pp pp
0.0000000000000000e+00 5.5999999999999996e+00 0.0000000000000000e+00
0.0000000000000000e+00 5.5999999999999996e+00 0.0000000000000000e+00
0.0000000000000000e+00 5.5999999999999996e+00 0.0000000000000000e+00
ITEM: ATOMS x y z
0.68125 0.68125 0.68125
3.40625 3.40625 0.68125
3.40625 0.68125 3.40625
0.68125 3.40625 3.40625
4.76875 2.04375 2.04375
2.04375 4.76875 2.04375
2.04375 2.04375 4.76875
4.76875 4.76875 4.76875
ITEM: TIMESTEP
6390
ITEM: NUMBER OF ATOMS
8
ITEM: BOX BOUNDS xy xz yz pp pp pp
0.0000000000000000e+00 5.5999999999999996e+00 0.0000000000000000e+00
0.0000000000000000e+00 5.5999999999999996e+00 0.0000000000000000e+00
0.0000000000000000e+00 5.5999999999999996e+00 0.0000000000000000e+00
ITEM: ATOMS x y z
0.68125 0.68125 0.68125
3.40625 3.40625 0.68125
3.40625 0.68125 3.40625
0.68125 3.40625 3.40625
4.76875 2.04375 2.04375
2.04375 4.76875 2.04375
2.04375 2.04375 4.76875
4.76875 4.76875 4.76875
ITEM: TIMESTEP
6400
ITEM: NUMBER OF ATOMS
8
ITEM: BOX BOUNDS xy xz yz pp pp pp
0.0000000000000000e+00 5.5999999999999996e+00 0.0000000000000000e+00
0.0000000000000000e+00 5.5999999999999996e+00 0.0000000000000000e+00
0.0000000000000000e+00 5.5999999999999996e+00 0.0000000000000000e+00
ITEM: ATOMS x y z
0.68125 0.68125 0.68125
3.40625 3.40625 0.68125
3.40625 0.68125 3.40625
0.68125 3.40625 3.40625
4.76875 2.04375 2.04375
2.04375 4.76875 2.04375
2.04375 2.04375 4.76875
4.76875 4.76875 4.76875
ITEM: TIMESTEP
6410
ITEM: NUMBER OF ATOMS
8
ITEM: BOX BOUNDS xy xz yz pp pp pp
0.0000000000000000e+00 5.5999999999999996e+00 0.0000000000000000e+00
0.0000000000000000e+00 5.5999999999999996e+00 0.0000000000000000e+00
0.0000000000000000e+00 5.5999999999999996e+00 0.0000000000000000e+00
ITEM: ATOMS x y z
0.68125 0.68125 0.68125
3.40625 3.40625 0.68125
3.40625 0.68125 3.40625
0.68125 3.40625 3.40625
4.76875 2.04375 2.04375
2.04375 4.76875 2.04375
2.04375 2.04375 4.76875
4.76875 4.76875 4.76875
ITEM: TIMESTEP
6420
ITEM: NUMBER OF ATOMS
8
ITEM: BOX BOUNDS xy xz yz pp pp pp
0.0000000000000000e+00 5.5999999999999996e+00 0.0000000000000000e+00
0.0000000000000000e+00 5.5999999999999996e+00 0.0000000000000000e+00
0.0000000000000000e+00 5.5999999999999996e+00 0.0000000000000000e+00
ITEM: ATOMS x y z
0.68125 0.68125 0.68125
3.40625 3.40625 0.68125
3.40625 0.68125 3.40625
0.68125 3.40625 3.40625
4.76875 2.04375 2.04375
2.04375 4.76875 2.04375
2.04375 2.04375 4.76875
4.76875 4.76875 4.76875
ITEM: TIMESTEP
6430
ITEM: NUMBER OF ATOMS
8
ITEM: BOX BOUNDS xy xz yz pp pp pp
0.0000000000000000e+00 5.5999999999999996e+00 0.0000000000000000e+00
0.0000000000000000e+00 5.5999999999999996e+00 0.0000000000000000e+00
0.0000000000000000e+00 5.5999999999999996e+00 0.0000000000000000e+00
ITEM: ATOMS x y z
0.68125 0.68125 0.68125
3.40625 3.40625 0.68125
3.40625 0.68125 3.40625
0.68125 3.40625 3.40625
4.76875 2.04375 2.04375
2.04375 4.76875 2.04375
2.04375 2.04375 4.76875
4.76875 4.76875 4.76875
ITEM: TIMESTEP
6440
ITEM: NUMBER OF ATOMS
8
ITEM: BOX BOUNDS xy xz yz pp pp pp
0.0000000000000000e+00 5.5999999999999996e+00 0.0000000000000000e+00
0.0000000000000000e+00 5.5999999999999996e+00 0.0000000000000000e+00
0.0000000000000000e+00 5.5999999999999996e+00 0.0000000000000000e+00
ITEM: ATOMS x y z
0.68125 0.68125 0.68125
3.40625 3.40625 0.68125
3.40625 0.68125 3.40625
0.68125 3.40625 3.40625
4.76875 2.04375 2.04375
2.04375 4.76875 2.04375
2.04375 2.04375 4.76875
4.76875 4.76875 4.76875
ITEM: TIMESTEP
6450
ITEM: NUMBER OF ATOMS
8
ITEM: BOX BOUNDS xy xz yz pp pp pp
0.0000000000000000e+00 5.5999999999999996e+00 0.0000000000000000e+00
0.0000000000000000e+00 5.5999999999999996e+00 0.0000000000000000e+00
0.0000000000000000e+00 5.5999999999999996e+00 0.0000000000000000e+00
ITEM: ATOMS x y z
0.68125 0.68125 0.68125
3.40625 3.40625 0.68125
3.40625 0.68125 3.40625
0.68125 3.40625 3.40625
4.76875 2.04375 2.04375
2.04375 4.76875 2.04375
2.04375 2.04375 4.76875
4.76875 4.76875 4.76875
ITEM: TIMESTEP
6460
ITEM: NUMBER OF ATOMS
8
ITEM: BOX BOUNDS xy xz yz pp pp pp
0.0000000000000000e+00 5.5999999999999996e+00 0.0000000000000000e+00
0.0000000000000000e+00 5.5999999999999996e+00 0.0000000000000000e+00
0.0000000000000000e+00 5.5999999999999996e+00 0.0000000000000000e+00
ITEM: ATOMS x y z
0.68125 0.68125 0.68125
3.40625 3.40625 0.68125
3.40625 0.68125 3.40625
0.68125 3.40625 3.40625
4.76875 2.04375 2.04375
2.04375 4.76875 2.04375
2.04375 2.04375 4.76875
4.76875 4.76875 4.76875
ITEM: TIMESTEP
6470
ITEM: NUMBER OF ATOMS
8
ITEM: BOX BOUNDS xy xz yz pp pp pp
0.0000000000000000e+00 5.5999999999999996e+00 0.0000000000000000e+00
0.0000000000000000e+00 5.5999999999999996e+00 0.0000000000000000e+00
0.0000000000000000e+00 5.5999999999999996e+00 0.0000000000000000e+00
ITEM: ATOMS x y z
0.68125 0.68125 0.68125
3.40625 3.40625 0.68125
3.40625 0.68125 3.40625
0.68125 3.40625 3.40625
4.76875 2.04375 2.04375
2.04375 4.76875 2.04375
2.04375 2.04375 4.76875
4.76875 4.76875 4.76875
ITEM: TIMESTEP
6480
ITEM: NUMBER OF ATOMS
8
ITEM: BOX BOUNDS xy xz yz pp pp pp
0.0000000000000000e+00 5.5999999999999996e+00 0.0000000000000000e+00
0.0000000000000000e+00 5.5999999999999996e+00 0.0000000000000000e+00
0.0000000000000000e+00 5.5999999999999996e+00 0.0000000000000000e+00
ITEM: ATOMS x y z
0.68125 0.68125 0.68125
3.40625 3.40625 0.68125
3.40625 0.68125 3.40625
0.68125 3.40625 3.40625
4.76875 2.04375 2.04375
2.04375 4.76875 2.04375
2.04375 2.04375 4.76875
4.76875 4.76875 4.76875
ITEM: TIMESTEP
6490
ITEM: NUMBER OF ATOMS
8
ITEM: BOX BOUNDS xy xz yz pp pp pp
0.0000000000000000e+00 5.5999999999999996e+00 0.0000000000000000e+00
0.0000000000000000e+00 5.5999999999999996e+00 0.0000000000000000e+00
0.0000000000000000e+00 5.5999999999999996e+00 0.0000000000000000e+00
ITEM: ATOMS x y z
0.68125 0.68125 0.68125
3.40625 3.40625 0.68125
3.40625 0.68125 3.40625
0.68125 3.40625 3.40625
4.76875 2.04375 2.04375
2.04375 4.76875 2.04375
2.04375 2.04375 4.76875
4.76875 4.76875 4.76875
ITEM: TIMESTEP
6500
ITEM: NUMBER OF ATOMS
8
ITEM: BOX BOUNDS xy xz yz pp pp pp
0.0000000000000000e+00 5.5999999999999996e+00 0.0000000000000000e+00
0.0000000000000000e+00 5.5999999999999996e+00 0.0000000000000000e+00
0.0000000000000000e+00 5.5999999999999996e+00 0.0000000000000000e+00
ITEM: ATOMS x y z
0.68125 0.68125 0.68125
3.40625 3.40625 0.68125
3.40625 0.68125 3.40625
0.68125 3.40625 3.40625
4.76875 2.04375 2.04375
2.04375 4.76875 2.04375
2.04375 2.04375 4.76875
4.76875 4.76875 4.76875
ITEM: TIMESTEP
6510
ITEM: NUMBER OF ATOMS
8
ITEM: BOX BOUNDS xy xz yz pp pp pp
0.0000000000000000e+00 5.5999999999999996e+00 0.0000000000000000e+00
0.0000000000000000e+00 5.5999999999999996e+00 0.0000000000000000e+00
0.0000000000000000e+00 5.5999999999999996e+00 0.0000000000000000e+00
ITEM: ATOMS x y z
0.68125 0.68125 0.68125
3.40625 3.40625 0.68125
3.40625 0.68125 3.40625
0.68125 3.40625 3.40625
4.76875 2.04375 2.04375
2.04375 4.76875 2.04375
2.04375 2.04375 4.76875
4.76875 4.76875 4.76875
ITEM: TIMESTEP
6520
ITEM: NUMBER OF ATOMS
8
ITEM: BOX BOUNDS xy xz yz pp pp pp
0.0000000000000000e+00 5.5999999999999996e+00 0.0000000000000000e+00
0.0000000000000000e+00 5.5999999999999996e+00 0.0000000000000000e+00
0.0000000000000000e+00 5.5999999999999996e+00 0.0000000000000000e+00
ITEM: ATOMS x y z
0.68125 0.68125 0.68125
3.40625 3.40625 0.68125
3.40625 0.68125 3.40625
0.68125 3.40625 3.40625
4.76875 2.04375 2.04375
2.04375 4.76875 2.04375
2.04375 2.04375 4.76875
4.76875 4.76875 4.76875
ITEM: TIMESTEP
6530
ITEM: NUMBER OF ATOMS
8
ITEM: BOX BOUNDS xy xz yz pp pp pp
0.0000000000000000e+00 5.5999999999999996e+00 0.0000000000000000e+00
0.0000000000000000e+00 5.5999999999999996e+00 0.0000000000000000e+00
0.0000000000000000e+00 5.5999999999999996e+00 0.0000000000000000e+00
ITEM: ATOMS x y z
0.68125 0.68125 0.68125
3.40625 3.40625 0.68125
3.40625 0.68125 3.40625
0.68125 3.40625 3.40625
4.76875 2.04375 2.04375
2.04375 4.76875 2.04375
2.04375 2.04375 4.76875
4.76875 4.76875 4.76875
ITEM: TIMESTEP
6540
ITEM: NUMBER OF ATOMS
8
ITEM: BOX BOUNDS xy xz yz pp pp pp
0.0000000000000000e+00 5.5999999999999996e+00 0.0000000000000000e+00
0.0000000000000000e+00 5.5999999999999996e+00 0.0000000000000000e+00
0.0000000000000000e+00 5.5999999999999996e+00 0.0000000000000000e+00
ITEM: ATOMS x y z
0.68125 0.68125 0.68125
3.40625 3.40625 0.68125
3.40625 0.68125 3.40625
0.68125 3.40625 3.40625
4.76875 2.04375 2.04375
2.04375 4.76875 2.04375
2.04375 2.04375 4.76875
4.76875 4.76875 4.76875
ITEM: TIMESTEP
6550
ITEM: NUMBER OF ATOMS
8
ITEM: BOX BOUNDS xy xz yz pp pp pp
0.0000000000000000e+00 5.5999999999999996e+00 0.0000000000000000e+00
0.0000000000000000e+00 5.5999999999999996e+00 0.0000000000000000e+00
0.0000000000000000e+00 5.5999999999999996e+00 0.0000000000000000e+00
ITEM: ATOMS x y z
0.68125 0.68125 0.68125
3.40625 3.40625 0.68125
3.40625 0.68125 3.40625
0.68125 3.40625 3.40625
4.76875 2.04375 2.04375
2.04375 4.76875 2.04375
2.04375 2.04375 4.76875
4.76875 4.76875 4.76875
ITEM: TIMESTEP
6560
ITEM: NUMBER OF ATOMS
8
ITEM: BOX BOUNDS xy xz yz pp pp pp
0.0000000000000000e+00 5.5999999999999996e+00 0.0000000000000000e+00
0.0000000000000000e+00 5.5999999999999996e+00 0.0000000000000000e+00
0.0000000000000000e+00 5.5999999999999996e+00 0.0000000000000000e+00
ITEM: ATOMS x y z
0.68125 0.68125 0.68125
3.40625 3.40625 0.68125
3.40625 0.68125 3.40625
0.68125 3.40625 3.40625
4.76875 2.04375 2.04375
2.04375 4.76875 2.04375
2.04375 2.04375 4.76875
4.76875 4.76875 4.76875
ITEM: TIMESTEP
6570
ITEM: NUMBER OF ATOMS
8
ITEM: BOX BOUNDS xy xz yz pp pp pp
0.0000000000000000e+00 5.5999999999999996e+00 0.0000000000000000e+00
0.0000000000000000e+00 5.5999999999999996e+00 0.0000000000000000e+00
0.0000000000000000e+00 5.5999999999999996e+00 0.0000000000000000e+00
ITEM: ATOMS x y z
0.68125 0.68125 0.68125
3.40625 3.40625 0.68125
3.40625 0.68125 3.40625
0.68125 3.40625 3.40625
4.76875 2.04375 2.04375
2.04375 4.76875 2.04375
2.04375 2.04375 4.76875
4.76875 4.76875 4.76875
ITEM: TIMESTEP
6580
ITEM: NUMBER OF ATOMS
8
ITEM: BOX BOUNDS xy xz yz pp pp pp
0.0000000000000000e+00 5.5999999999999996e+00 0.0000000000000000e+00
0.0000000000000000e+00 5.5999999999999996e+00 0.0000000000000000e+00
0.0000000000000000e+00 5.5999999999999996e+00 0.0000000000000000e+00
ITEM: ATOMS x y z
0.68125 0.68125 0.68125
3.40625 3.40625 0.68125
3.40625 0.68125 3.40625
0.68125 3.40625 3.40625
4.76875 2.04375 2.04375
2.04375 4.76875 2.04375
2.04375 2.04375 4.76875
4.76875 4.76875 4.76875
ITEM: TIMESTEP
6590
ITEM: NUMBER OF ATOMS
8
ITEM: BOX BOUNDS xy xz yz pp pp pp
0.0000000000000000e+00 5.5999999999999996e+00 0.0000000000000000e+00
0.0000000000000000e+00 5.5999999999999996e+00 0.0000000000000000e+00
0.0000000000000000e+00 5.5999999999999996e+00 0.0000000000000000e+00
ITEM: ATOMS x y z
0.68125 0.68125 0.68125
3.40625 3.40625 0.68125
3.40625 0.68125 3.40625
0.68125 3.40625 3.40625
4.76875 2.04375 2.04375
2.04375 4.76875 2.04375
2.04375 2.04375 4.76875
4.76875 4.76875 4.76875
ITEM: TIMESTEP
6600
ITEM: NUMBER OF ATOMS
8
ITEM: BOX BOUNDS xy xz yz pp pp pp
0.0000000000000000e+00 5.5999999999999996e+00 0.0000000000000000e+00
0.0000000000000000e+00 5.5999999999999996e+00 0.0000000000000000e+00
0.0000000000000000e+00 5.5999999999999996e+00 0.0000000000000000e+00
ITEM: ATOMS x y z
0.68125 0.68125 0.68125
3.40625 3.40625 0.68125
3.40625 0.68125 3.40625
0.68125 3.40625 3.40625
4.76875 2.04375 2.04375
2.04375 4.76875 2.04375
2.04375 2.04375 4.76875
4.76875 4.76875 4.76875
ITEM: TIMESTEP
6610
ITEM: NUMBER OF ATOMS
8
ITEM: BOX BOUNDS xy xz yz pp pp pp
0.0000000000000000e+00 5.5999999999999996e+00 0.0000000000000000e+00
0.0000000000000000e+00 5.5999999999999996e+00 0.0000000000000000e+00
0.0000000000000000e+00 5.5999999999999996e+00 0.0000000000000000e+00
ITEM: ATOMS x y z
0.68125 0.68125 0.68125
3.40625 3.40625 0.68125
3.40625 0.68125 3.40625
0.68125 3.40625 3.40625
4.76875 2.04375 2.04375
2.04375 4.76875 2.04375
2.04375 2.04375 4.76875
4.76875 4.76875 4.76875
ITEM: TIMESTEP
6620
ITEM: NUMBER OF ATOMS
8
ITEM: BOX BOUNDS xy xz yz pp pp pp
0.0000000000000000e+00 5.5999999999999996e+00 0.0000000000000000e+00
0.0000000000000000e+00 5.5999999999999996e+00 0.0000000000000000e+00
0.0000000000000000e+00 5.5999999999999996e+00 0.0000000000000000e+00
ITEM: ATOMS x y z
0.68125 0.68125 0.68125
3.40625 3.40625 0.68125
3.40625 0.68125 3.40625
0.68125 3.40625 3.40625
4.76875 2.04375 2.04375
2.04375 4.76875 2.04375
2.04375 2.04375 4.76875
4.76875 4.76875 4.76875
ITEM: TIMESTEP
6630
ITEM: NUMBER OF ATOMS
8
ITEM: BOX BOUNDS xy xz yz pp pp pp
0.0000000000000000e+00 5.5999999999999996e+00 0.0000000000000000e+00
0.0000000000000000e+00 5.5999999999999996e+00 0.0000000000000000e+00
0.0000000000000000e+00 5.5999999999999996e+00 0.0000000000000000e+00
ITEM: ATOMS x y z
0.68125 0.68125 0.68125
3.40625 3.40625 0.68125
3.40625 0.68125 3.40625
0.68125 3.40625 3.40625
4.76875 2.04375 2.04375
2.04375 4.76875 2.04375
2.04375 2.04375 4.76875
4.76875 4.76875 4.76875
ITEM: TIMESTEP
6640
ITEM: NUMBER OF ATOMS
8
ITEM: BOX BOUNDS xy xz yz pp pp pp
0.0000000000000000e+00 5.5999999999999996e+00 0.0000000000000000e+00
0.0000000000000000e+00 5.5999999999999996e+00 0.0000000000000000e+00
0.0000000000000000e+00 5.5999999999999996e+00 0.0000000000000000e+00
ITEM: ATOMS x y z
0.68125 0.68125 0.68125
3.40625 3.40625 0.68125
3.40625 0.68125 3.40625
0.68125 3.40625 3.40625
4.76875 2.04375 2.04375
2.04375 4.76875 2.04375
2.04375 2.04375 4.76875
4.76875 4.76875 4.76875
ITEM: TIMESTEP
6650
ITEM: NUMBER OF ATOMS
8
ITEM: BOX BOUNDS xy xz yz pp pp pp
0.0000000000000000e+00 5.5999999999999996e+00 0.0000000000000000e+00
0.0000000000000000e+00 5.5999999999999996e+00 0.0000000000000000e+00
0.0000000000000000e+00 5.5999999999999996e+00 0.0000000000000000e+00
ITEM: ATOMS x y z
0.68125 0.68125 0.68125
3.40625 3.40625 0.68125
3.40625 0.68125 3.40625
0.68125 3.40625 3.40625
4.76875 2.04375 2.04375
2.04375 4.76875 2.04375
2.04375 2.04375 4.76875
4.76875 4.76875 4.76875
ITEM: TIMESTEP
6660
ITEM: NUMBER OF ATOMS
8
ITEM: BOX BOUNDS xy xz yz pp pp pp
0.0000000000000000e+00 5.5999999999999996e+00 0.0000000000000000e+00
0.0000000000000000e+00 5.5999999999999996e+00 0.0000000000000000e+00
0.0000000000000000e+00 5.5999999999999996e+00 0.0000000000000000e+00
ITEM: ATOMS x y z
0.68125 0.68125 0.68125
3.40625 3.40625 0.68125
3.40625 0.68125 3.40625
0.68125 3.40625 3.40625
4.76875 2.04375 2.04375
2.04375 4.76875 2.04375
2.04375 2.04375 4.76875
4.76875 4.76875 4.76875
ITEM: TIMESTEP
6670
ITEM: NUMBER OF ATOMS
8
ITEM: BOX BOUNDS xy xz yz pp pp pp
0.0000000000000000e+00 5.5999999999999996e+00 0.0000000000000000e+00
0.0000000000000000e+00 5.5999999999999996e+00 0.0000000000000000e+00
0.0000000000000000e+00 5.5999999999999996e+00 0.0000000000000000e+00
ITEM: ATOMS x y z
0.68125 0.68125 0.68125
3.40625 3.40625 0.68125
3.40625 0.68125 3.40625
0.68125 3.40625 3.40625
4.76875 2.04375 2.04375
2.04375 4.76875 2.04375
2.04375 2.04375 4.76875
4.76875 4.76875 4.76875
ITEM: TIMESTEP
6680
ITEM: NUMBER OF ATOMS
8
ITEM: BOX BOUNDS xy xz yz pp pp pp
0.0000000000000000e+00 5.5999999999999996e+00 0.0000000000000000e+00
0.0000000000000000e+00 5.5999999999999996e+00 0.0000000000000000e+00
0.0000000000000000e+00 5.5999999999999996e+00 0.0000000000000000e+00
ITEM: ATOMS x y z
0.68125 0.68125 0.68125
3.40625 3.40625 0.68125
3.40625 0.68125 3.40625
0.68125 3.40625 3.40625
4.76875 2.04375 2.04375
2.04375 4.76875 2.04375
2.04375 2.04375 4.76875
4.76875 4.76875 4.76875
ITEM: TIMESTEP
6690
ITEM: NUMBER OF ATOMS
8
ITEM: BOX BOUNDS xy xz yz pp pp pp
0.0000000000000000e+00 5.5999999999999996e+00 0.0000000000000000e+00
0.0000000000000000e+00 5.5999999999999996e+00 0.0000000000000000e+00
0.0000000000000000e+00 5.5999999999999996e+00 0.0000000000000000e+00
ITEM: ATOMS x y z
0.68125 0.68125 0.68125
3.40625 3.40625 0.68125
3.40625 0.68125 3.40625
0.68125 3.40625 3.40625
4.76875 2.04375 2.04375
2.04375 4.76875 2.04375
2.04375 2.04375 4.76875
4.76875 4.76875 4.76875
ITEM: TIMESTEP
6700
ITEM: NUMBER OF ATOMS
8
ITEM: BOX BOUNDS xy xz yz pp pp pp
0.0000000000000000e+00 5.5999999999999996e+00 0.0000000000000000e+00
0.0000000000000000e+00 5.5999999999999996e+00 0.0000000000000000e+00
0.0000000000000000e+00 5.5999999999999996e+00 0.0000000000000000e+00
ITEM: ATOMS x y z
0.68125 0.68125 0.68125
3.40625 3.40625 0.68125
3.40625 0.68125 3.40625
0.68125 3.40625 3.40625
4.76875 2.04375 2.04375
2.04375 4.76875 2.04375
2.04375 2.04375 4.76875
4.76875 4.76875 4.76875
ITEM: TIMESTEP
6710
ITEM: NUMBER OF ATOMS
8
ITEM: BOX BOUNDS xy xz yz pp pp pp
0.0000000000000000e+00 5.5999999999999996e+00 0.0000000000000000e+00
0.0000000000000000e+00 5.5999999999999996e+00 0.0000000000000000e+00
0.0000000000000000e+00 5.5999999999999996e+00 0.0000000000000000e+00
ITEM: ATOMS x y z
0.68125 0.68125 0.68125
3.40625 3.40625 0.68125
3.40625 0.68125 3.40625
0.68125 3.40625 3.40625
4.76875 2.04375 2.04375
2.04375 4.76875 2.04375
2.04375 2.04375 4.76875
4.76875 4.76875 4.76875
ITEM: TIMESTEP
6720
ITEM: NUMBER OF ATOMS
8
ITEM: BOX BOUNDS xy xz yz pp pp pp
0.0000000000000000e+00 5.5999999999999996e+00 0.0000000000000000e+00
0.0000000000000000e+00 5.5999999999999996e+00 0.0000000000000000e+00
0.0000000000000000e+00 5.5999999999999996e+00 0.0000000000000000e+00
ITEM: ATOMS x y z
0.68125 0.68125 0.68125
3.40625 3.40625 0.68125
3.40625 0.68125 3.40625
0.68125 3.40625 3.40625
4.76875 2.04375 2.04375
2.04375 4.76875 2.04375
2.04375 2.04375 4.76875
4.76875 4.76875 4.76875
ITEM: TIMESTEP
6730
ITEM: NUMBER OF ATOMS
8
ITEM: BOX BOUNDS xy xz yz pp pp pp
0.0000000000000000e+00 5.5999999999999996e+00 0.0000000000000000e+00
0.0000000000000000e+00 5.5999999999999996e+00 0.0000000000000000e+00
0.0000000000000000e+00 5.5999999999999996e+00 0.0000000000000000e+00
ITEM: ATOMS x y z
0.68125 0.68125 0.68125
3.40625 3.40625 0.68125
3.40625 0.68125 3.40625
0.68125 3.40625 3.40625
4.76875 2.04375 2.04375
2.04375 4.76875 2.04375
2.04375 2.04375 4.76875
4.76875 4.76875 4.76875
ITEM: TIMESTEP
6740
ITEM: NUMBER OF ATOMS
8
ITEM: BOX BOUNDS xy xz yz pp pp pp
0.0000000000000000e+00 5.5999999999999996e+00 0.0000000000000000e+00
0.0000000000000000e+00 5.5999999999999996e+00 0.0000000000000000e+00
0.0000000000000000e+00 5.5999999999999996e+00 0.0000000000000000e+00
ITEM: ATOMS x y z
0.68125 0.68125 0.68125
3.40625 3.40625 0.68125
3.40625 0.68125 3.40625
0.68125 3.40625 3.40625
4.76875 2.04375 2.04375
2.04375 4.76875 2.04375
2.04375 2.04375 4.76875
4.76875 4.76875 4.76875
ITEM: TIMESTEP
6750
ITEM: NUMBER OF ATOMS
8
ITEM: BOX BOUNDS xy xz yz pp pp pp
0.0000000000000000e+00 5.5999999999999996e+00 0.0000000000000000e+00
0.0000000000000000e+00 5.5999999999999996e+00 0.0000000000000000e+00
0.0000000000000000e+00 5.5999999999999996e+00 0.0000000000000000e+00
ITEM: ATOMS x y z
0.68125 0.68125 0.68125
3.40625 3.40625 0.68125
3.40625 0.68125 3.40625
0.68125 3.40625 3.40625
4.76875 2.04375 2.04375
2.04375 4.76875 2.04375
2.04375 2.04375 4.76875
4.76875 4.76875 4.76875
ITEM: TIMESTEP
6760
ITEM: NUMBER OF ATOMS
8
ITEM: BOX BOUNDS xy xz yz pp pp pp
0.0000000000000000e+00 5.5999999999999996e+00 0.0000000000000000e+00
0.0000000000000000e+00 5.5999999999999996e+00 0.0000000000000000e+00
0.0000000000000000e+00 5.5999999999999996e+00 0.0000000000000000e+00
ITEM: ATOMS x y z
0.68125 0.68125 0.68125
3.40625 3.40625 0.68125
3.40625 0.68125 3.40625
0.68125 3.40625 3.40625
4.76875 2.04375 2.04375
2.04375 4.76875 2.04375
2.04375 2.04375 4.76875
4.76875 4.76875 4.76875
ITEM: TIMESTEP
6770
ITEM: NUMBER OF ATOMS
8
ITEM: BOX BOUNDS xy xz yz pp pp pp
0.0000000000000000e+00 5.5999999999999996e+00 0.0000000000000000e+00
0.0000000000000000e+00 5.5999999999999996e+00 0.0000000000000000e+00
0.0000000000000000e+00 5.5999999999999996e+00 0.0000000000000000e+00
ITEM: ATOMS x y z
0.68125 0.68125 0.68125
3.40625 3.40625 0.68125
3.40625 0.68125 3.40625
0.68125 3.40625 3.40625
4.76875 2.04375 2.04375
2.04375 4.76875 2.04375
2.04375 2.04375 4.76875
4.76875 4.76875 4.76875
ITEM: TIMESTEP
6780
ITEM: NUMBER OF ATOMS
8
ITEM: BOX BOUNDS xy xz yz pp pp pp
0.0000000000000000e+00 5.5999999999999996e+00 0.0000000000000000e+00
0.0000000000000000e+00 5.5999999999999996e+00 0.0000000000000000e+00
0.0000000000000000e+00 5.5999999999999996e+00 0.0000000000000000e+00
ITEM: ATOMS x y z
0.68125 0.68125 0.68125
3.40625 3.40625 0.68125
3.40625 0.68125 3.40625
0.68125 3.40625 3.40625
4.76875 2.04375 2.04375
2.04375 4.76875 2.04375
2.04375 2.04375 4.76875
4.76875 4.76875 4.76875
ITEM: TIMESTEP
6790
ITEM: NUMBER OF ATOMS
8
ITEM: BOX BOUNDS xy xz yz pp pp pp
0.0000000000000000e+00 5.5999999999999996e+00 0.0000000000000000e+00
0.0000000000000000e+00 5.5999999999999996e+00 0.0000000000000000e+00
0.0000000000000000e+00 5.5999999999999996e+00 0.0000000000000000e+00
ITEM: ATOMS x y z
0.68125 0.68125 0.68125
3.40625 3.40625 0.68125
3.40625 0.68125 3.40625
0.68125 3.40625 3.40625
4.76875 2.04375 2.04375
2.04375 4.76875 2.04375
2.04375 2.04375 4.76875
4.76875 4.76875 4.76875
ITEM: TIMESTEP
6800
ITEM: NUMBER OF ATOMS
8
ITEM: BOX BOUNDS xy xz yz pp pp pp
0.0000000000000000e+00 5.5999999999999996e+00 0.0000000000000000e+00
0.0000000000000000e+00 5.5999999999999996e+00 0.0000000000000000e+00
0.0000000000000000e+00 5.5999999999999996e+00 0.0000000000000000e+00
ITEM: ATOMS x y z
0.68125 0.68125 0.68125
3.40625 3.40625 0.68125
3.40625 0.68125 3.40625
0.68125 3.40625 3.40625
4.76875 2.04375 2.04375
2.04375 4.76875 2.04375
2.04375 2.04375 4.76875
4.76875 4.76875 4.76875
ITEM: TIMESTEP
6810
ITEM: NUMBER OF ATOMS
8
ITEM: BOX BOUNDS xy xz yz pp pp pp
0.0000000000000000e+00 5.5999999999999996e+00 0.0000000000000000e+00
0.0000000000000000e+00 5.5999999999999996e+00 0.0000000000000000e+00
0.0000000000000000e+00 5.5999999999999996e+00 0.0000000000000000e+00
ITEM: ATOMS x y z
0.68125 0.68125 0.68125
3.40625 3.40625 0.68125
3.40625 0.68125 3.40625
0.68125 3.40625 3.40625
4.76875 2.04375 2.04375
2.04375 4.76875 2.04375
2.04375 2.04375 4.76875
4.76875 4.76875 4.76875
ITEM: TIMESTEP
6820
ITEM: NUMBER OF ATOMS
8
ITEM: BOX BOUNDS xy xz yz pp pp pp
0.0000000000000000e+00 5.5999999999999996e+00 0.0000000000000000e+00
0.0000000000000000e+00 5.5999999999999996e+00 0.0000000000000000e+00
0.0000000000000000e+00 5.5999999999999996e+00 0.0000000000000000e+00
ITEM: ATOMS x y z
0.68125 0.68125 0.68125
3.40625 3.40625 0.68125
3.40625 0.68125 3.40625
0.68125 3.40625 3.40625
4.76875 2.04375 2.04375
2.04375 4.76875 2.04375
2.04375 2.04375 4.76875
4.76875 4.76875 4.76875
ITEM: TIMESTEP
6830
ITEM: NUMBER OF ATOMS
8
ITEM: BOX BOUNDS xy xz yz pp pp pp
0.0000000000000000e+00 5.5999999999999996e+00 0.0000000000000000e+00
0.0000000000000000e+00 5.5999999999999996e+00 0.0000000000000000e+00
0.0000000000000000e+00 5.5999999999999996e+00 0.0000000000000000e+00
ITEM: ATOMS x y z
0.68125 0.68125 0.68125
3.40625 3.40625 0.68125
3.40625 0.68125 3.40625
0.68125 3.40625 3.40625
4.76875 2.04375 2.04375
2.04375 4.76875 2.04375
2.04375 2.04375 4.76875
4.76875 4.76875 4.76875
ITEM: TIMESTEP
6840
ITEM: NUMBER OF ATOMS
8
ITEM: BOX BOUNDS xy xz yz pp pp pp
0.0000000000000000e+00 5.5999999999999996e+00 0.0000000000000000e+00
0.0000000000000000e+00 5.5999999999999996e+00 0.0000000000000000e+00
0.0000000000000000e+00 5.5999999999999996e+00 0.0000000000000000e+00
ITEM: ATOMS x y z
0.68125 0.68125 0.68125
3.40625 3.40625 0.68125
3.40625 0.68125 3.40625
0.68125 3.40625 3.40625
4.76875 2.04375 2.04375
2.04375 4.76875 2.04375
2.04375 2.04375 4.76875
4.76875 4.76875 4.76875
ITEM: TIMESTEP
6850
ITEM: NUMBER OF ATOMS
8
ITEM: BOX BOUNDS xy xz yz pp pp pp
0.0000000000000000e+00 5.5999999999999996e+00 0.0000000000000000e+00
0.0000000000000000e+00 5.5999999999999996e+00 0.0000000000000000e+00
0.0000000000000000e+00 5.5999999999999996e+00 0.0000000000000000e+00
ITEM: ATOMS x y z
0.68125 0.68125 0.68125
3.40625 3.40625 0.68125
3.40625 0.68125 3.40625
0.68125 3.40625 3.40625
4.76875 2.04375 2.04375
2.04375 4.76875 2.04375
2.04375 2.04375 4.76875
4.76875 4.76875 4.76875
ITEM: TIMESTEP
6860
ITEM: NUMBER OF ATOMS
8
ITEM: BOX BOUNDS xy xz yz pp pp pp
0.0000000000000000e+00 5.5999999999999996e+00 0.0000000000000000e+00
0.0000000000000000e+00 5.5999999999999996e+00 0.0000000000000000e+00
0.0000000000000000e+00 5.5999999999999996e+00 0.0000000000000000e+00
ITEM: ATOMS x y z
0.68125 0.68125 0.68125
3.40625 3.40625 0.68125
3.40625 0.68125 3.40625
0.68125 3.40625 3.40625
4.76875 2.04375 2.04375
2.04375 4.76875 2.04375
2.04375 2.04375 4.76875
4.76875 4.76875 4.76875
ITEM: TIMESTEP
6870
ITEM: NUMBER OF ATOMS
8
ITEM: BOX BOUNDS xy xz yz pp pp pp
0.0000000000000000e+00 5.5999999999999996e+00 0.0000000000000000e+00
0.0000000000000000e+00 5.5999999999999996e+00 0.0000000000000000e+00
0.0000000000000000e+00 5.5999999999999996e+00 0.0000000000000000e+00
ITEM: ATOMS x y z
0.68125 0.68125 0.68125
3.40625 3.40625 0.68125
3.40625 0.68125 3.40625
0.68125 3.40625 3.40625
4.76875 2.04375 2.04375
2.04375 4.76875 2.04375
2.04375 2.04375 4.76875
4.76875 4.76875 4.76875
ITEM: TIMESTEP
6880
ITEM: NUMBER OF ATOMS
8
ITEM: BOX BOUNDS xy xz yz pp pp pp
0.0000000000000000e+00 5.5999999999999996e+00 0.0000000000000000e+00
0.0000000000000000e+00 5.5999999999999996e+00 0.0000000000000000e+00
0.0000000000000000e+00 5.5999999999999996e+00 0.0000000000000000e+00
ITEM: ATOMS x y z
0.68125 0.68125 0.68125
3.40625 3.40625 0.68125
3.40625 0.68125 3.40625
0.68125 3.40625 3.40625
4.76875 2.04375 2.04375
2.04375 4.76875 2.04375
2.04375 2.04375 4.76875
4.76875 4.76875 4.76875
ITEM: TIMESTEP
6890
ITEM: NUMBER OF ATOMS
8
ITEM: BOX BOUNDS xy xz yz pp pp pp
0.0000000000000000e+00 5.5999999999999996e+00 0.0000000000000000e+00
0.0000000000000000e+00 5.5999999999999996e+00 0.0000000000000000e+00
0.0000000000000000e+00 5.5999999999999996e+00 0.0000000000000000e+00
ITEM: ATOMS x y z
0.68125 0.68125 0.68125
3.40625 3.40625 0.68125
3.40625 0.68125 3.40625
0.68125 3.40625 3.40625
4.76875 2.04375 2.04375
2.04375 4.76875 2.04375
2.04375 2.04375 4.76875
4.76875 4.76875 4.76875
ITEM: TIMESTEP
6900
ITEM: NUMBER OF ATOMS
8
ITEM: BOX BOUNDS xy xz yz pp pp pp
0.0000000000000000e+00 5.5999999999999996e+00 0.0000000000000000e+00
0.0000000000000000e+00 5.5999999999999996e+00 0.0000000000000000e+00
0.0000000000000000e+00 5.5999999999999996e+00 0.0000000000000000e+00
ITEM: ATOMS x y z
0.68125 0.68125 0.68125
3.40625 3.40625 0.68125
3.40625 0.68125 3.40625
0.68125 3.40625 3.40625
4.76875 2.04375 2.04375
2.04375 4.76875 2.04375
2.04375 2.04375 4.76875
4.76875 4.76875 4.76875
ITEM: TIMESTEP
6910
ITEM: NUMBER OF ATOMS
8
ITEM: BOX BOUNDS xy xz yz pp pp pp
0.0000000000000000e+00 5.5999999999999996e+00 0.0000000000000000e+00
0.0000000000000000e+00 5.5999999999999996e+00 0.0000000000000000e+00
0.0000000000000000e+00 5.5999999999999996e+00 0.0000000000000000e+00
ITEM: ATOMS x y z
0.68125 0.68125 0.68125
3.40625 3.40625 0.68125
3.40625 0.68125 3.40625
0.68125 3.40625 3.40625
4.76875 2.04375 2.04375
2.04375 4.76875 2.04375
2.04375 2.04375 4.76875
4.76875 4.76875 4.76875
ITEM: TIMESTEP
6920
ITEM: NUMBER OF ATOMS
8
ITEM: BOX BOUNDS xy xz yz pp pp pp
0.0000000000000000e+00 5.5999999999999996e+00 0.0000000000000000e+00
0.0000000000000000e+00 5.5999999999999996e+00 0.0000000000000000e+00
0.0000000000000000e+00 5.5999999999999996e+00 0.0000000000000000e+00
ITEM: ATOMS x y z
0.68125 0.68125 0.68125
3.40625 3.40625 0.68125
3.40625 0.68125 3.40625
0.68125 3.40625 3.40625
4.76875 2.04375 2.04375
2.04375 4.76875 2.04375
2.04375 2.04375 4.76875
4.76875 4.76875 4.76875
ITEM: TIMESTEP
6930
ITEM: NUMBER OF ATOMS
8
ITEM: BOX BOUNDS xy xz yz pp pp pp
0.0000000000000000e+00 5.5999999999999996e+00 0.0000000000000000e+00
0.0000000000000000e+00 5.5999999999999996e+00 0.0000000000000000e+00
0.0000000000000000e+00 5.5999999999999996e+00 0.0000000000000000e+00
ITEM: ATOMS x y z
0.68125 0.68125 0.68125
3.40625 3.40625 0.68125
3.40625 0.68125 3.40625
0.68125 3.40625 3.40625
4.76875 2.04375 2.04375
2.04375 4.76875 2.04375
2.04375 2.04375 4.76875
4.76875 4.76875 4.76875
ITEM: TIMESTEP
6940
ITEM: NUMBER OF ATOMS
8
ITEM: BOX BOUNDS xy xz yz pp pp pp
0.0000000000000000e+00 5.5999999999999996e+00 0.0000000000000000e+00
0.0000000000000000e+00 5.5999999999999996e+00 0.0000000000000000e+00
0.0000000000000000e+00 5.5999999999999996e+00 0.0000000000000000e+00
ITEM: ATOMS x y z
0.68125 0.68125 0.68125
3.40625 3.40625 0.68125
3.40625 0.68125 3.40625
0.68125 3.40625 3.40625
4.76875 2.04375 2.04375
2.04375 4.76875 2.04375
2.04375 2.04375 4.76875
4.76875 4.76875 4.76875
ITEM: TIMESTEP
6950
ITEM: NUMBER OF ATOMS
8
ITEM: BOX BOUNDS xy xz yz pp pp pp
0.0000000000000000e+00 5.5999999999999996e+00 0.0000000000000000e+00
0.0000000000000000e+00 5.5999999999999996e+00 0.0000000000000000e+00
0.0000000000000000e+00 5.5999999999999996e+00 0.0000000000000000e+00
ITEM: ATOMS x y z
0.68125 0.68125 0.68125
3.40625 3.40625 0.68125
3.40625 0.68125 3.40625
0.68125 3.40625 3.40625
4.76875 2.04375 2.04375
2.04375 4.76875 2.04375
2.04375 2.04375 4.76875
4.76875 4.76875 4.76875
ITEM: TIMESTEP
6960
ITEM: NUMBER OF ATOMS
8
ITEM: BOX BOUNDS xy xz yz pp pp pp
0.0000000000000000e+00 5.5999999999999996e+00 0.0000000000000000e+00
0.0000000000000000e+00 5.5999999999999996e+00 0.0000000000000000e+00
0.0000000000000000e+00 5.5999999999999996e+00 0.0000000000000000e+00
ITEM: ATOMS x y z
0.68125 0.68125 0.68125
3.40625 3.40625 0.68125
3.40625 0.68125 3.40625
0.68125 3.40625 3.40625
4.76875 2.04375 2.04375
2.04375 4.76875 2.04375
2.04375 2.04375 4.76875
4.76875 4.76875 4.76875
ITEM: TIMESTEP
6970
ITEM: NUMBER OF ATOMS
8
ITEM: BOX BOUNDS xy xz yz pp pp pp
0.0000000000000000e+00 5.5999999999999996e+00 0.0000000000000000e+00
0.0000000000000000e+00 5.5999999999999996e+00 0.0000000000000000e+00
0.0000000000000000e+00 5.5999999999999996e+00 0.0000000000000000e+00
ITEM: ATOMS x y z
0.68125 0.68125 0.68125
3.40625 3.40625 0.68125
3.40625 0.68125 3.40625
0.68125 3.40625 3.40625
4.76875 2.04375 2.04375
2.04375 4.76875 2.04375
2.04375 2.04375 4.76875
4.76875 4.76875 4.76875
ITEM: TIMESTEP
6980
ITEM: NUMBER OF ATOMS
8
ITEM: BOX BOUNDS xy xz yz pp pp pp
0.0000000000000000e+00 5.5999999999999996e+00 0.0000000000000000e+00
0.0000000000000000e+00 5.5999999999999996e+00 0.0000000000000000e+00
0.0000000000000000e+00 5.5999999999999996e+00 0.0000000000000000e+00
ITEM: ATOMS x y z
0.68125 0.68125 0.68125
3.40625 3.40625 0.68125
3.40625 0.68125 3.40625
0.68125 3.40625 3.40625
4.76875 2.04375 2.04375
2.04375 4.76875 2.04375
2.04375 2.04375 4.76875
4.76875 4.76875 4.76875
ITEM: TIMESTEP
6990
ITEM: NUMBER OF ATOMS
8
ITEM: BOX BOUNDS xy xz yz pp pp pp
0.0000000000000000e+00 5.5999999999999996e+00 0.0000000000000000e+00
0.0000000000000000e+00 5.5999999999999996e+00 0.0000000000000000e+00
0.0000000000000000e+00 5.5999999999999996e+00 0.0000000000000000e+00
ITEM: ATOMS x y z
0.68125 0.68125 0.68125
3.40625 3.40625 0.68125
3.40625 0.68125 3.40625
0.68125 3.40625 3.40625
4.76875 2.04375 2.04375
2.04375 4.76875 2.04375
2.04375 2.04375 4.76875
4.76875 4.76875 4.76875
ITEM: TIMESTEP
7000
ITEM: NUMBER OF ATOMS
8
ITEM: BOX BOUNDS xy xz yz pp pp pp
0.0000000000000000e+00 5.5999999999999996e+00 0.0000000000000000e+00
0.0000000000000000e+00 5.5999999999999996e+00 0.0000000000000000e+00
0.0000000000000000e+00 5.5999999999999996e+00 0.0000000000000000e+00
ITEM: ATOMS x y z
0.68125 0.68125 0.68125
3.40625 3.40625 0.68125
3.40625 0.68125 3.40625
0.68125 3.40625 3.40625
4.76875 2.04375 2.04375
2.04375 4.76875 2.04375
2.04375 2.04375 4.76875
4.76875 4.76875 4.76875
ITEM: TIMESTEP
7010
ITEM: NUMBER OF ATOMS
8
ITEM: BOX BOUNDS xy xz yz pp pp pp
0.0000000000000000e+00 5.5999999999999996e+00 0.0000000000000000e+00
0.0000000000000000e+00 5.5999999999999996e+00 0.0000000000000000e+00
0.0000000000000000e+00 5.5999999999999996e+00 0.0000000000000000e+00
ITEM: ATOMS x y z
0.68125 0.68125 0.68125
3.40625 3.40625 0.68125
3.40625 0.68125 3.40625
0.68125 3.40625 3.40625
4.76875 2.04375 2.04375
2.04375 4.76875 2.04375
2.04375 2.04375 4.76875
4.76875 4.76875 4.76875
ITEM: TIMESTEP
7020
ITEM: NUMBER OF ATOMS
8
ITEM: BOX BOUNDS xy xz yz pp pp pp
0.0000000000000000e+00 5.5999999999999996e+00 0.0000000000000000e+00
0.0000000000000000e+00 5.5999999999999996e+00 0.0000000000000000e+00
0.0000000000000000e+00 5.5999999999999996e+00 0.0000000000000000e+00
ITEM: ATOMS x y z
0.68125 0.68125 0.68125
3.40625 3.40625 0.68125
3.40625 0.68125 3.40625
0.68125 3.40625 3.40625
4.76875 2.04375 2.04375
2.04375 4.76875 2.04375
2.04375 2.04375 4.76875
4.76875 4.76875 4.76875
ITEM: TIMESTEP
7030
ITEM: NUMBER OF ATOMS
8
ITEM: BOX BOUNDS xy xz yz pp pp pp
0.0000000000000000e+00 5.5999999999999996e+00 0.0000000000000000e+00
0.0000000000000000e+00 5.5999999999999996e+00 0.0000000000000000e+00
0.0000000000000000e+00 5.5999999999999996e+00 0.0000000000000000e+00
ITEM: ATOMS x y z
0.68125 0.68125 0.68125
3.40625 3.40625 0.68125
3.40625 0.68125 3.40625
0.68125 3.40625 3.40625
4.76875 2.04375 2.04375
2.04375 4.76875 2.04375
2.04375 2.04375 4.76875
4.76875 4.76875 4.76875
ITEM: TIMESTEP
7040
ITEM: NUMBER OF ATOMS
8
ITEM: BOX BOUNDS xy xz yz pp pp pp
0.0000000000000000e+00 5.5999999999999996e+00 0.0000000000000000e+00
0.0000000000000000e+00 5.5999999999999996e+00 0.0000000000000000e+00
0.0000000000000000e+00 5.5999999999999996e+00 0.0000000000000000e+00
ITEM: ATOMS x y z
0.68125 0.68125 0.68125
3.40625 3.40625 0.68125
3.40625 0.68125 3.40625
0.68125 3.40625 3.40625
4.76875 2.04375 2.04375
2.04375 4.76875 2.04375
2.04375 2.04375 4.76875
4.76875 4.76875 4.76875
ITEM: TIMESTEP
7050
ITEM: NUMBER OF ATOMS
8
ITEM: BOX BOUNDS xy xz yz pp pp pp
0.0000000000000000e+00 5.5999999999999996e+00 0.0000000000000000e+00
0.0000000000000000e+00 5.5999999999999996e+00 0.0000000000000000e+00
0.0000000000000000e+00 5.5999999999999996e+00 0.0000000000000000e+00
ITEM: ATOMS x y z
0.68125 0.68125 0.68125
3.40625 3.40625 0.68125
3.40625 0.68125 3.40625
0.68125 3.40625 3.40625
4.76875 2.04375 2.04375
2.04375 4.76875 2.04375
2.04375 2.04375 4.76875
4.76875 4.76875 4.76875
ITEM: TIMESTEP
7060
ITEM: NUMBER OF ATOMS
8
ITEM: BOX BOUNDS xy xz yz pp pp pp
0.0000000000000000e+00 5.5999999999999996e+00 0.0000000000000000e+00
0.0000000000000000e+00 5.5999999999999996e+00 0.0000000000000000e+00
0.0000000000000000e+00 5.5999999999999996e+00 0.0000000000000000e+00
ITEM: ATOMS x y z
0.68125 0.68125 0.68125
3.40625 3.40625 0.68125
3.40625 0.68125 3.40625
0.68125 3.40625 3.40625
4.76875 2.04375 2.04375
2.04375 4.76875 2.04375
2.04375 2.04375 4.76875
4.76875 4.76875 4.76875
ITEM: TIMESTEP
7070
ITEM: NUMBER OF ATOMS
8
ITEM: BOX BOUNDS xy xz yz pp pp pp
0.0000000000000000e+00 5.5999999999999996e+00 0.0000000000000000e+00
0.0000000000000000e+00 5.5999999999999996e+00 0.0000000000000000e+00
0.0000000000000000e+00 5.5999999999999996e+00 0.0000000000000000e+00
ITEM: ATOMS x y z
0.68125 0.68125 0.68125
3.40625 3.40625 0.68125
3.40625 0.68125 3.40625
0.68125 3.40625 3.40625
4.76875 2.04375 2.04375
2.04375 4.76875 2.04375
2.04375 2.04375 4.76875
4.76875 4.76875 4.76875
ITEM: TIMESTEP
7080
ITEM: NUMBER OF ATOMS
8
ITEM: BOX BOUNDS xy xz yz pp pp pp
0.0000000000000000e+00 5.5999999999999996e+00 0.0000000000000000e+00
0.0000000000000000e+00 5.5999999999999996e+00 0.0000000000000000e+00
0.0000000000000000e+00 5.5999999999999996e+00 0.0000000000000000e+00
ITEM: ATOMS x y z
0.68125 0.68125 0.68125
3.40625 3.40625 0.68125
3.40625 0.68125 3.40625
0.68125 3.40625 3.40625
4.76875 2.04375 2.04375
2.04375 4.76875 2.04375
2.04375 2.04375 4.76875
4.76875 4.76875 4.76875
ITEM: TIMESTEP
7090
ITEM: NUMBER OF ATOMS
8
ITEM: BOX BOUNDS xy xz yz pp pp pp
0.0000000000000000e+00 5.5999999999999996e+00 0.0000000000000000e+00
0.0000000000000000e+00 5.5999999999999996e+00 0.0000000000000000e+00
0.0000000000000000e+00 5.5999999999999996e+00 0.0000000000000000e+00
ITEM: ATOMS x y z
0.68125 0.68125 0.68125
3.40625 3.40625 0.68125
3.40625 0.68125 3.40625
0.68125 3.40625 3.40625
4.76875 2.04375 2.04375
2.04375 4.76875 2.04375
2.04375 2.04375 4.76875
4.76875 4.76875 4.76875
ITEM: TIMESTEP
7100
ITEM: NUMBER OF ATOMS
8
ITEM: BOX BOUNDS xy xz yz pp pp pp
0.0000000000000000e+00 5.5999999999999996e+00 0.0000000000000000e+00
0.0000000000000000e+00 5.5999999999999996e+00 0.0000000000000000e+00
0.0000000000000000e+00 5.5999999999999996e+00 0.0000000000000000e+00
ITEM: ATOMS x y z
0.68125 0.68125 0.68125
3.40625 3.40625 0.68125
3.40625 0.68125 3.40625
0.68125 3.40625 3.40625
4.76875 2.04375 2.04375
2.04375 4.76875 2.04375
2.04375 2.04375 4.76875
4.76875 4.76875 4.76875
ITEM: TIMESTEP
7110
ITEM: NUMBER OF ATOMS
8
ITEM: BOX BOUNDS xy xz yz pp pp pp
0.0000000000000000e+00 5.5999999999999996e+00 0.0000000000000000e+00
0.0000000000000000e+00 5.5999999999999996e+00 0.0000000000000000e+00
0.0000000000000000e+00 5.5999999999999996e+00 0.0000000000000000e+00
ITEM: ATOMS x y z
0.68125 0.68125 0.68125
3.40625 3.40625 0.68125
3.40625 0.68125 3.40625
0.68125 3.40625 3.40625
4.76875 2.04375 2.04375
2.04375 4.76875 2.04375
2.04375 2.04375 4.76875
4.76875 4.76875 4.76875
ITEM: TIMESTEP
7120
ITEM: NUMBER OF ATOMS
8
ITEM: BOX BOUNDS xy xz yz pp pp pp
0.0000000000000000e+00 5.5999999999999996e+00 0.0000000000000000e+00
0.0000000000000000e+00 5.5999999999999996e+00 0.0000000000000000e+00
0.0000000000000000e+00 5.5999999999999996e+00 0.0000000000000000e+00
ITEM: ATOMS x y z
0.68125 0.68125 0.68125
3.40625 3.40625 0.68125
3.40625 0.68125 3.40625
0.68125 3.40625 3.40625
4.76875 2.04375 2.04375
2.04375 4.76875 2.04375
2.04375 2.04375 4.76875
4.76875 4.76875 4.76875
ITEM: TIMESTEP
7130
ITEM: NUMBER OF ATOMS
8
ITEM: BOX BOUNDS xy xz yz pp pp pp
0.0000000000000000e+00 5.5999999999999996e+00 0.0000000000000000e+00
0.0000000000000000e+00 5.5999999999999996e+00 0.0000000000000000e+00
0.0000000000000000e+00 5.5999999999999996e+00 0.0000000000000000e+00
ITEM: ATOMS x y z
0.68125 0.68125 0.68125
3.40625 3.40625 0.68125
3.40625 0.68125 3.40625
0.68125 3.40625 3.40625
4.76875 2.04375 2.04375
2.04375 4.76875 2.04375
2.04375 2.04375 4.76875
4.76875 4.76875 4.76875
ITEM: TIMESTEP
7140
ITEM: NUMBER OF ATOMS
8
ITEM: BOX BOUNDS xy xz yz pp pp pp
0.0000000000000000e+00 5.5999999999999996e+00 0.0000000000000000e+00
0.0000000000000000e+00 5.5999999999999996e+00 0.0000000000000000e+00
0.0000000000000000e+00 5.5999999999999996e+00 0.0000000000000000e+00
ITEM: ATOMS x y z
0.68125 0.68125 0.68125
3.40625 3.40625 0.68125
3.40625 0.68125 3.40625
0.68125 3.40625 3.40625
4.76875 2.04375 2.04375
2.04375 4.76875 2.04375
2.04375 2.04375 4.76875
4.76875 4.76875 4.76875
ITEM: TIMESTEP
7150
ITEM: NUMBER OF ATOMS
8
ITEM: BOX BOUNDS xy xz yz pp pp pp
0.0000000000000000e+00 5.5999999999999996e+00 0.0000000000000000e+00
0.0000000000000000e+00 5.5999999999999996e+00 0.0000000000000000e+00
0.0000000000000000e+00 5.5999999999999996e+00 0.0000000000000000e+00
ITEM: ATOMS x y z
0.68125 0.68125 0.68125
3.40625 3.40625 0.68125
3.40625 0.68125 3.40625
0.68125 3.40625 3.40625
4.76875 2.04375 2.04375
2.04375 4.76875 2.04375
2.04375 2.04375 4.76875
4.76875 4.76875 4.76875
ITEM: TIMESTEP
7160
ITEM: NUMBER OF ATOMS
8
ITEM: BOX BOUNDS xy xz yz pp pp pp
0.0000000000000000e+00 5.5999999999999996e+00 0.0000000000000000e+00
0.0000000000000000e+00 5.5999999999999996e+00 0.0000000000000000e+00
0.0000000000000000e+00 5.5999999999999996e+00 0.0000000000000000e+00
ITEM: ATOMS x y z
0.68125 0.68125 0.68125
3.40625 3.40625 0.68125
3.40625 0.68125 3.40625
0.68125 3.40625 3.40625
4.76875 2.04375 2.04375
2.04375 4.76875 2.04375
2.04375 2.04375 4.76875
4.76875 4.76875 4.76875
ITEM: TIMESTEP
7170
ITEM: NUMBER OF ATOMS
8
ITEM: BOX BOUNDS xy xz yz pp pp pp
0.0000000000000000e+00 5.5999999999999996e+00 0.0000000000000000e+00
0.0000000000000000e+00 5.5999999999999996e+00 0.0000000000000000e+00
0.0000000000000000e+00 5.5999999999999996e+00 0.0000000000000000e+00
ITEM: ATOMS x y z
0.68125 0.68125 0.68125
3.40625 3.40625 0.68125
3.40625 0.68125 3.40625
0.68125 3.40625 3.40625
4.76875 2.04375 2.04375
2.04375 4.76875 2.04375
2.04375 2.04375 4.76875
4.76875 4.76875 4.76875
ITEM: TIMESTEP
7180
ITEM: NUMBER OF ATOMS
8
ITEM: BOX BOUNDS xy xz yz pp pp pp
0.0000000000000000e+00 5.5999999999999996e+00 0.0000000000000000e+00
0.0000000000000000e+00 5.5999999999999996e+00 0.0000000000000000e+00
0.0000000000000000e+00 5.5999999999999996e+00 0.0000000000000000e+00
ITEM: ATOMS x y z
0.68125 0.68125 0.68125
3.40625 3.40625 0.68125
3.40625 0.68125 3.40625
0.68125 3.40625 3.40625
4.76875 2.04375 2.04375
2.04375 4.76875 2.04375
2.04375 2.04375 4.76875
4.76875 4.76875 4.76875
ITEM: TIMESTEP
7190
ITEM: NUMBER OF ATOMS
8
ITEM: BOX BOUNDS xy xz yz pp pp pp
0.0000000000000000e+00 5.5999999999999996e+00 0.0000000000000000e+00
0.0000000000000000e+00 5.5999999999999996e+00 0.0000000000000000e+00
0.0000000000000000e+00 5.5999999999999996e+00 0.0000000000000000e+00
ITEM: ATOMS x y z
0.68125 0.68125 0.68125
3.40625 3.40625 0.68125
3.40625 0.68125 3.40625
0.68125 3.40625 3.40625
4.76875 2.04375 2.04375
2.04375 4.76875 2.04375
2.04375 2.04375 4.76875
4.76875 4.76875 4.76875
ITEM: TIMESTEP
7200
ITEM: NUMBER OF ATOMS
8
ITEM: BOX BOUNDS xy xz yz pp pp pp
0.0000000000000000e+00 5.5999999999999996e+00 0.0000000000000000e+00
0.0000000000000000e+00 5.5999999999999996e+00 0.0000000000000000e+00
0.0000000000000000e+00 5.5999999999999996e+00 0.0000000000000000e+00
ITEM: ATOMS x y z
0.68125 0.68125 0.68125
3.40625 3.40625 0.68125
3.40625 0.68125 3.40625
0.68125 3.40625 3.40625
4.76875 2.04375 2.04375
2.04375 4.76875 2.04375
2.04375 2.04375 4.76875
4.76875 4.76875 4.76875
ITEM: TIMESTEP
7210
ITEM: NUMBER OF ATOMS
8
ITEM: BOX BOUNDS xy xz yz pp pp pp
0.0000000000000000e+00 5.5999999999999996e+00 0.0000000000000000e+00
0.0000000000000000e+00 5.5999999999999996e+00 0.0000000000000000e+00
0.0000000000000000e+00 5.5999999999999996e+00 0.0000000000000000e+00
ITEM: ATOMS x y z
0.68125 0.68125 0.68125
3.40625 3.40625 0.68125
3.40625 0.68125 3.40625
0.68125 3.40625 3.40625
4.76875 2.04375 2.04375
2.04375 4.76875 2.04375
2.04375 2.04375 4.76875
4.76875 4.76875 4.76875
ITEM: TIMESTEP
7220
ITEM: NUMBER OF ATOMS
8
ITEM: BOX BOUNDS xy xz yz pp pp pp
0.0000000000000000e+00 5.5999999999999996e+00 0.0000000000000000e+00
0.0000000000000000e+00 5.5999999999999996e+00 0.0000000000000000e+00
0.0000000000000000e+00 5.5999999999999996e+00 0.0000000000000000e+00
ITEM: ATOMS x y z
0.68125 0.68125 0.68125
3.40625 3.40625 0.68125
3.40625 0.68125 3.40625
0.68125 3.40625 3.40625
4.76875 2.04375 2.04375
2.04375 4.76875 2.04375
2.04375 2.04375 4.76875
4.76875 4.76875 4.76875
ITEM: TIMESTEP
7230
ITEM: NUMBER OF ATOMS
8
ITEM: BOX BOUNDS xy xz yz pp pp pp
0.0000000000000000e+00 5.5999999999999996e+00 0.0000000000000000e+00
0.0000000000000000e+00 5.5999999999999996e+00 0.0000000000000000e+00
0.0000000000000000e+00 5.5999999999999996e+00 0.0000000000000000e+00
ITEM: ATOMS x y z
0.68125 0.68125 0.68125
3.40625 3.40625 0.68125
3.40625 0.68125 3.40625
0.68125 3.40625 3.40625
4.76875 2.04375 2.04375
2.04375 4.76875 2.04375
2.04375 2.04375 4.76875
4.76875 4.76875 4.76875
ITEM: TIMESTEP
7240
ITEM: NUMBER OF ATOMS
8
ITEM: BOX BOUNDS xy xz yz pp pp pp
0.0000000000000000e+00 5.5999999999999996e+00 0.0000000000000000e+00
0.0000000000000000e+00 5.5999999999999996e+00 0.0000000000000000e+00
0.0000000000000000e+00 5.5999999999999996e+00 0.0000000000000000e+00
ITEM: ATOMS x y z
0.68125 0.68125 0.68125
3.40625 3.40625 0.68125
3.40625 0.68125 3.40625
0.68125 3.40625 3.40625
4.76875 2.04375 2.04375
2.04375 4.76875 2.04375
2.04375 2.04375 4.76875
4.76875 4.76875 4.76875
ITEM: TIMESTEP
7250
ITEM: NUMBER OF ATOMS
8
ITEM: BOX BOUNDS xy xz yz pp pp pp
0.0000000000000000e+00 5.5999999999999996e+00 0.0000000000000000e+00
0.0000000000000000e+00 5.5999999999999996e+00 0.0000000000000000e+00
0.0000000000000000e+00 5.5999999999999996e+00 0.0000000000000000e+00
ITEM: ATOMS x y z
0.68125 0.68125 0.68125
3.40625 3.40625 0.68125
3.40625 0.68125 3.40625
0.68125 3.40625 3.40625
4.76875 2.04375 2.04375
2.04375 4.76875 2.04375
2.04375 2.04375 4.76875
4.76875 4.76875 4.76875
ITEM: TIMESTEP
7260
ITEM: NUMBER OF ATOMS
8
ITEM: BOX BOUNDS xy xz yz pp pp pp
0.0000000000000000e+00 5.5999999999999996e+00 0.0000000000000000e+00
0.0000000000000000e+00 5.5999999999999996e+00 0.0000000000000000e+00
0.0000000000000000e+00 5.5999999999999996e+00 0.0000000000000000e+00
ITEM: ATOMS x y z
0.68125 0.68125 0.68125
3.40625 3.40625 0.68125
3.40625 0.68125 3.40625
0.68125 3.40625 3.40625
4.76875 2.04375 2.04375
2.04375 4.76875 2.04375
2.04375 2.04375 4.76875
4.76875 4.76875 4.76875
ITEM: TIMESTEP
7270
ITEM: NUMBER OF ATOMS
8
ITEM: BOX BOUNDS xy xz yz pp pp pp
0.0000000000000000e+00 5.5999999999999996e+00 0.0000000000000000e+00
0.0000000000000000e+00 5.5999999999999996e+00 0.0000000000000000e+00
0.0000000000000000e+00 5.5999999999999996e+00 0.0000000000000000e+00
ITEM: ATOMS x y z
0.68125 0.68125 0.68125
3.40625 3.40625 0.68125
3.40625 0.68125 3.40625
0.68125 3.40625 3.40625
4.76875 2.04375 2.04375
2.04375 4.76875 2.04375
2.04375 2.04375 4.76875
4.76875 4.76875 4.76875
ITEM: TIMESTEP
7280
ITEM: NUMBER OF ATOMS
8
ITEM: BOX BOUNDS xy xz yz pp pp pp
0.0000000000000000e+00 5.5999999999999996e+00 0.0000000000000000e+00
0.0000000000000000e+00 5.5999999999999996e+00 0.0000000000000000e+00
0.0000000000000000e+00 5.5999999999999996e+00 0.0000000000000000e+00
ITEM: ATOMS x y z
0.68125 0.68125 0.68125
3.40625 3.40625 0.68125
3.40625 0.68125 3.40625
0.68125 3.40625 3.40625
4.76875 2.04375 2.04375
2.04375 4.76875 2.04375
2.04375 2.04375 4.76875
4.76875 4.76875 4.76875
ITEM: TIMESTEP
7290
ITEM: NUMBER OF ATOMS
8
ITEM: BOX BOUNDS xy xz yz pp pp pp
0.0000000000000000e+00 5.5999999999999996e+00 0.0000000000000000e+00
0.0000000000000000e+00 5.5999999999999996e+00 0.0000000000000000e+00
0.0000000000000000e+00 5.5999999999999996e+00 0.0000000000000000e+00
ITEM: ATOMS x y z
0.68125 0.68125 0.68125
3.40625 3.40625 0.68125
3.40625 0.68125 3.40625
0.68125 3.40625 3.40625
4.76875 2.04375 2.04375
2.04375 4.76875 2.04375
2.04375 2.04375 4.76875
4.76875 4.76875 4.76875
ITEM: TIMESTEP
7300
ITEM: NUMBER OF ATOMS
8
ITEM: BOX BOUNDS xy xz yz pp pp pp
0.0000000000000000e+00 5.5999999999999996e+00 0.0000000000000000e+00
0.0000000000000000e+00 5.5999999999999996e+00 0.0000000000000000e+00
0.0000000000000000e+00 5.5999999999999996e+00 0.0000000000000000e+00
ITEM: ATOMS x y z
0.68125 0.68125 0.68125
3.40625 3.40625 0.68125
3.40625 0.68125 3.40625
0.68125 3.40625 3.40625
4.76875 2.04375 2.04375
2.04375 4.76875 2.04375
2.04375 2.04375 4.76875
4.76875 4.76875 4.76875
ITEM: TIMESTEP
7310
ITEM: NUMBER OF ATOMS
8
ITEM: BOX BOUNDS xy xz yz pp pp pp
0.0000000000000000e+00 5.5999999999999996e+00 0.0000000000000000e+00
0.0000000000000000e+00 5.5999999999999996e+00 0.0000000000000000e+00
0.0000000000000000e+00 5.5999999999999996e+00 0.0000000000000000e+00
ITEM: ATOMS x y z
0.68125 0.68125 0.68125
3.40625 3.40625 0.68125
3.40625 0.68125 3.40625
0.68125 3.40625 3.40625
4.76875 2.04375 2.04375
2.04375 4.76875 2.04375
2.04375 2.04375 4.76875
4.76875 4.76875 4.76875
ITEM: TIMESTEP
7320
ITEM: NUMBER OF ATOMS
8
ITEM: BOX BOUNDS xy xz yz pp pp pp
0.0000000000000000e+00 5.5999999999999996e+00 0.0000000000000000e+00
0.0000000000000000e+00 5.5999999999999996e+00 0.0000000000000000e+00
0.0000000000000000e+00 5.5999999999999996e+00 0.0000000000000000e+00
ITEM: ATOMS x y z
0.68125 0.68125 0.68125
3.40625 3.40625 0.68125
3.40625 0.68125 3.40625
0.68125 3.40625 3.40625
4.76875 2.04375 2.04375
2.04375 4.76875 2.04375
2.04375 2.04375 4.76875
4.76875 4.76875 4.76875
ITEM: TIMESTEP
7330
ITEM: NUMBER OF ATOMS
8
ITEM: BOX BOUNDS xy xz yz pp pp pp
0.0000000000000000e+00 5.5999999999999996e+00 0.0000000000000000e+00
0.0000000000000000e+00 5.5999999999999996e+00 0.0000000000000000e+00
0.0000000000000000e+00 5.5999999999999996e+00 0.0000000000000000e+00
ITEM: ATOMS x y z
0.68125 0.68125 0.68125
3.40625 3.40625 0.68125
3.40625 0.68125 3.40625
0.68125 3.40625 3.40625
4.76875 2.04375 2.04375
2.04375 4.76875 2.04375
2.04375 2.04375 4.76875
4.76875 4.76875 4.76875
ITEM: TIMESTEP
7340
ITEM: NUMBER OF ATOMS
8
ITEM: BOX BOUNDS xy xz yz pp pp pp
0.0000000000000000e+00 5.5999999999999996e+00 0.0000000000000000e+00
0.0000000000000000e+00 5.5999999999999996e+00 0.0000000000000000e+00
0.0000000000000000e+00 5.5999999999999996e+00 0.0000000000000000e+00
ITEM: ATOMS x y z
0.68125 0.68125 0.68125
3.40625 3.40625 0.68125
3.40625 0.68125 3.40625
0.68125 3.40625 3.40625
4.76875 2.04375 2.04375
2.04375 4.76875 2.04375
2.04375 2.04375 4.76875
4.76875 4.76875 4.76875
ITEM: TIMESTEP
7350
ITEM: NUMBER OF ATOMS
8
ITEM: BOX BOUNDS xy xz yz pp pp pp
0.0000000000000000e+00 5.5999999999999996e+00 0.0000000000000000e+00
0.0000000000000000e+00 5.5999999999999996e+00 0.0000000000000000e+00
0.0000000000000000e+00 5.5999999999999996e+00 0.0000000000000000e+00
ITEM: ATOMS x y z
0.68125 0.68125 0.68125
3.40625 3.40625 0.68125
3.40625 0.68125 3.40625
0.68125 3.40625 3.40625
4.76875 2.04375 2.04375
2.04375 4.76875 2.04375
2.04375 2.04375 4.76875
4.76875 4.76875 4.76875
ITEM: TIMESTEP
7360
ITEM: NUMBER OF ATOMS
8
ITEM: BOX BOUNDS xy xz yz pp pp pp
0.0000000000000000e+00 5.5999999999999996e+00 0.0000000000000000e+00
0.0000000000000000e+00 5.5999999999999996e+00 0.0000000000000000e+00
0.0000000000000000e+00 5.5999999999999996e+00 0.0000000000000000e+00
ITEM: ATOMS x y z
0.68125 0.68125 0.68125
3.40625 3.40625 0.68125
3.40625 0.68125 3.40625
0.68125 3.40625 3.40625
4.76875 2.04375 2.04375
2.04375 4.76875 2.04375
2.04375 2.04375 4.76875
4.76875 4.76875 4.76875
ITEM: TIMESTEP
7370
ITEM: NUMBER OF ATOMS
8
ITEM: BOX BOUNDS xy xz yz pp pp pp
0.0000000000000000e+00 5.5999999999999996e+00 0.0000000000000000e+00
0.0000000000000000e+00 5.5999999999999996e+00 0.0000000000000000e+00
0.0000000000000000e+00 5.5999999999999996e+00 0.0000000000000000e+00
ITEM: ATOMS x y z
0.68125 0.68125 0.68125
3.40625 3.40625 0.68125
3.40625 0.68125 3.40625
0.68125 3.40625 3.40625
4.76875 2.04375 2.04375
2.04375 4.76875 2.04375
2.04375 2.04375 4.76875
4.76875 4.76875 4.76875
ITEM: TIMESTEP
7380
ITEM: NUMBER OF ATOMS
8
ITEM: BOX BOUNDS xy xz yz pp pp pp
0.0000000000000000e+00 5.5999999999999996e+00 0.0000000000000000e+00
0.0000000000000000e+00 5.5999999999999996e+00 0.0000000000000000e+00
0.0000000000000000e+00 5.5999999999999996e+00 0.0000000000000000e+00
ITEM: ATOMS x y z
0.68125 0.68125 0.68125
3.40625 3.40625 0.68125
3.40625 0.68125 3.40625
0.68125 3.40625 3.40625
4.76875 2.04375 2.04375
2.04375 4.76875 2.04375
2.04375 2.04375 4.76875
4.76875 4.76875 4.76875
ITEM: TIMESTEP
7390
ITEM: NUMBER OF ATOMS
8
ITEM: BOX BOUNDS xy xz yz pp pp pp
0.0000000000000000e+00 5.5999999999999996e+00 0.0000000000000000e+00
0.0000000000000000e+00 5.5999999999999996e+00 0.0000000000000000e+00
0.0000000000000000e+00 5.5999999999999996e+00 0.0000000000000000e+00
ITEM: ATOMS x y z
0.68125 0.68125 0.68125
3.40625 3.40625 0.68125
3.40625 0.68125 3.40625
0.68125 3.40625 3.40625
4.76875 2.04375 2.04375
2.04375 4.76875 2.04375
2.04375 2.04375 4.76875
4.76875 4.76875 4.76875
ITEM: TIMESTEP
7400
ITEM: NUMBER OF ATOMS
8
ITEM: BOX BOUNDS xy xz yz pp pp pp
0.0000000000000000e+00 5.5999999999999996e+00 0.0000000000000000e+00
0.0000000000000000e+00 5.5999999999999996e+00 0.0000000000000000e+00
0.0000000000000000e+00 5.5999999999999996e+00 0.0000000000000000e+00
ITEM: ATOMS x y z
0.68125 0.68125 0.68125
3.40625 3.40625 0.68125
3.40625 0.68125 3.40625
0.68125 3.40625 3.40625
4.76875 2.04375 2.04375
2.04375 4.76875 2.04375
2.04375 2.04375 4.76875
4.76875 4.76875 4.76875
ITEM: TIMESTEP
7410
ITEM: NUMBER OF ATOMS
8
ITEM: BOX BOUNDS xy xz yz pp pp pp
0.0000000000000000e+00 5.5999999999999996e+00 0.0000000000000000e+00
0.0000000000000000e+00 5.5999999999999996e+00 0.0000000000000000e+00
0.0000000000000000e+00 5.5999999999999996e+00 0.0000000000000000e+00
ITEM: ATOMS x y z
0.68125 0.68125 0.68125
3.40625 3.40625 0.68125
3.40625 0.68125 3.40625
0.68125 3.40625 3.40625
4.76875 2.04375 2.04375
2.04375 4.76875 2.04375
2.04375 2.04375 4.76875
4.76875 4.76875 4.76875
ITEM: TIMESTEP
7420
ITEM: NUMBER OF ATOMS
8
ITEM: BOX BOUNDS xy xz yz pp pp pp
0.0000000000000000e+00 5.5999999999999996e+00 0.0000000000000000e+00
0.0000000000000000e+00 5.5999999999999996e+00 0.0000000000000000e+00
0.0000000000000000e+00 5.5999999999999996e+00 0.0000000000000000e+00
ITEM: ATOMS x y z
0.68125 0.68125 0.68125
3.40625 3.40625 0.68125
3.40625 0.68125 3.40625
0.68125 3.40625 3.40625
4.76875 2.04375 2.04375
2.04375 4.76875 2.04375
2.04375 2.04375 4.76875
4.76875 4.76875 4.76875
ITEM: TIMESTEP
7430
ITEM: NUMBER OF ATOMS
8
ITEM: BOX BOUNDS xy xz yz pp pp pp
0.0000000000000000e+00 5.5999999999999996e+00 0.0000000000000000e+00
0.0000000000000000e+00 5.5999999999999996e+00 0.0000000000000000e+00
0.0000000000000000e+00 5.5999999999999996e+00 0.0000000000000000e+00
ITEM: ATOMS x y z
0.68125 0.68125 0.68125
3.40625 3.40625 0.68125
3.40625 0.68125 3.40625
0.68125 3.40625 3.40625
4.76875 2.04375 2.04375
2.04375 4.76875 2.04375
2.04375 2.04375 4.76875
4.76875 4.76875 4.76875
ITEM: TIMESTEP
7440
ITEM: NUMBER OF ATOMS
8
ITEM: BOX BOUNDS xy xz yz pp pp pp
0.0000000000000000e+00 5.5999999999999996e+00 0.0000000000000000e+00
0.0000000000000000e+00 5.5999999999999996e+00 0.0000000000000000e+00
0.0000000000000000e+00 5.5999999999999996e+00 0.0000000000000000e+00
ITEM: ATOMS x y z
0.68125 0.68125 0.68125
3.40625 3.40625 0.68125
3.40625 0.68125 3.40625
0.68125 3.40625 3.40625
4.76875 2.04375 2.04375
2.04375 4.76875 2.04375
2.04375 2.04375 4.76875
4.76875 4.76875 4.76875
ITEM: TIMESTEP
7450
ITEM: NUMBER OF ATOMS
8
ITEM: BOX BOUNDS xy xz yz pp pp pp
0.0000000000000000e+00 5.5999999999999996e+00 0.0000000000000000e+00
0.0000000000000000e+00 5.5999999999999996e+00 0.0000000000000000e+00
0.0000000000000000e+00 5.5999999999999996e+00 0.0000000000000000e+00
ITEM: ATOMS x y z
0.68125 0.68125 0.68125
3.40625 3.40625 0.68125
3.40625 0.68125 3.40625
0.68125 3.40625 3.40625
4.76875 2.04375 2.04375
2.04375 4.76875 2.04375
2.04375 2.04375 4.76875
4.76875 4.76875 4.76875
ITEM: TIMESTEP
7460
ITEM: NUMBER OF ATOMS
8
ITEM: BOX BOUNDS xy xz yz pp pp pp
0.0000000000000000e+00 5.5999999999999996e+00 0.0000000000000000e+00
0.0000000000000000e+00 5.5999999999999996e+00 0.0000000000000000e+00
0.0000000000000000e+00 5.5999999999999996e+00 0.0000000000000000e+00
ITEM: ATOMS x y z
0.68125 0.68125 0.68125
3.40625 3.40625 0.68125
3.40625 0.68125 3.40625
0.68125 3.40625 3.40625
4.76875 2.04375 2.04375
2.04375 4.76875 2.04375
2.04375 2.04375 4.76875
4.76875 4.76875 4.76875
ITEM: TIMESTEP
7470
ITEM: NUMBER OF ATOMS
8
ITEM: BOX BOUNDS xy xz yz pp pp pp
0.0000000000000000e+00 5.5999999999999996e+00 0.0000000000000000e+00
0.0000000000000000e+00 5.5999999999999996e+00 0.0000000000000000e+00
0.0000000000000000e+00 5.5999999999999996e+00 0.0000000000000000e+00
ITEM: ATOMS x y z
0.68125 0.68125 0.68125
3.40625 3.40625 0.68125
3.40625 0.68125 3.40625
0.68125 3.40625 3.40625
4.76875 2.04375 2.04375
2.04375 4.76875 2.04375
2.04375 2.04375 4.76875
4.76875 4.76875 4.76875
ITEM: TIMESTEP
7480
ITEM: NUMBER OF ATOMS
8
ITEM: BOX BOUNDS xy xz yz pp pp pp
0.0000000000000000e+00 5.5999999999999996e+00 0.0000000000000000e+00
0.0000000000000000e+00 5.5999999999999996e+00 0.0000000000000000e+00
0.0000000000000000e+00 5.5999999999999996e+00 0.0000000000000000e+00
ITEM: ATOMS x y z
0.68125 0.68125 0.68125
3.40625 3.40625 0.68125
3.40625 0.68125 3.40625
0.68125 3.40625 3.40625
4.76875 2.04375 2.04375
2.04375 4.76875 2.04375
2.04375 2.04375 4.76875
4.76875 4.76875 4.76875
ITEM: TIMESTEP
7490
ITEM: NUMBER OF ATOMS
8
ITEM: BOX BOUNDS xy xz yz pp pp pp
0.0000000000000000e+00 5.5999999999999996e+00 0.0000000000000000e+00
0.0000000000000000e+00 5.5999999999999996e+00 0.0000000000000000e+00
0.0000000000000000e+00 5.5999999999999996e+00 0.0000000000000000e+00
ITEM: ATOMS x y z
0.68125 0.68125 0.68125
3.40625 3.40625 0.68125
3.40625 0.68125 3.40625
0.68125 3.40625 3.40625
4.76875 2.04375 2.04375
2.04375 4.76875 2.04375
2.04375 2.04375 4.76875
4.76875 4.76875 4.76875
ITEM: TIMESTEP
7500
ITEM: NUMBER OF ATOMS
8
ITEM: BOX BOUNDS xy xz yz pp pp pp
0.0000000000000000e+00 5.5999999999999996e+00 0.0000000000000000e+00
0.0000000000000000e+00 5.5999999999999996e+00 0.0000000000000000e+00
0.0000000000000000e+00 5.5999999999999996e+00 0.0000000000000000e+00
ITEM: ATOMS x y z
0.68125 0.68125 0.68125
3.40625 3.40625 0.68125
3.40625 0.68125 3.40625
0.68125 3.40625 3.40625
4.76875 2.04375 2.04375
2.04375 4.76875 2.04375
2.04375 2.04375 4.76875
4.76875 4.76875 4.76875
ITEM: TIMESTEP
7510
ITEM: NUMBER OF ATOMS
8
ITEM: BOX BOUNDS xy xz yz pp pp pp
0.0000000000000000e+00 5.5999999999999996e+00 0.0000000000000000e+00
0.0000000000000000e+00 5.5999999999999996e+00 0.0000000000000000e+00
0.0000000000000000e+00 5.5999999999999996e+00 0.0000000000000000e+00
ITEM: ATOMS x y z
0.68125 0.68125 0.68125
3.40625 3.40625 0.68125
3.40625 0.68125 3.40625
0.68125 3.40625 3.40625
4.76875 2.04375 2.04375
2.04375 4.76875 2.04375
2.04375 2.04375 4.76875
4.76875 4.76875 4.76875
ITEM: TIMESTEP
7520
ITEM: NUMBER OF ATOMS
8
ITEM: BOX BOUNDS xy xz yz pp pp pp
0.0000000000000000e+00 5.5999999999999996e+00 0.0000000000000000e+00
0.0000000000000000e+00 5.5999999999999996e+00 0.0000000000000000e+00
0.0000000000000000e+00 5.5999999999999996e+00 0.0000000000000000e+00
ITEM: ATOMS x y z
0.68125 0.68125 0.68125
3.40625 3.40625 0.68125
3.40625 0.68125 3.40625
0.68125 3.40625 3.40625
4.76875 2.04375 2.04375
2.04375 4.76875 2.04375
2.04375 2.04375 4.76875
4.76875 4.76875 4.76875
ITEM: TIMESTEP
7530
ITEM: NUMBER OF ATOMS
8
ITEM: BOX BOUNDS xy xz yz pp pp pp
0.0000000000000000e+00 5.5999999999999996e+00 0.0000000000000000e+00
0.0000000000000000e+00 5.5999999999999996e+00 0.0000000000000000e+00
0.0000000000000000e+00 5.5999999999999996e+00 0.0000000000000000e+00
ITEM: ATOMS x y z
0.68125 0.68125 0.68125
3.40625 3.40625 0.68125
3.40625 0.68125 3.40625
0.68125 3.40625 3.40625
4.76875 2.04375 2.04375
2.04375 4.76875 2.04375
2.04375 2.04375 4.76875
4.76875 4.76875 4.76875
ITEM: TIMESTEP
7540
ITEM: NUMBER OF ATOMS
8
ITEM: BOX BOUNDS xy xz yz pp pp pp
0.0000000000000000e+00 5.5999999999999996e+00 0.0000000000000000e+00
0.0000000000000000e+00 5.5999999999999996e+00 0.0000000000000000e+00
0.0000000000000000e+00 5.5999999999999996e+00 0.0000000000000000e+00
ITEM: ATOMS x y z
0.68125 0.68125 0.68125
3.40625 3.40625 0.68125
3.40625 0.68125 3.40625
0.68125 3.40625 3.40625
4.76875 2.04375 2.04375
2.04375 4.76875 2.04375
2.04375 2.04375 4.76875
4.76875 4.76875 4.76875
ITEM: TIMESTEP
7550
ITEM: NUMBER OF ATOMS
8
ITEM: BOX BOUNDS xy xz yz pp pp pp
0.0000000000000000e+00 5.5999999999999996e+00 0.0000000000000000e+00
0.0000000000000000e+00 5.5999999999999996e+00 0.0000000000000000e+00
0.0000000000000000e+00 5.5999999999999996e+00 0.0000000000000000e+00
ITEM: ATOMS x y z
0.68125 0.68125 0.68125
3.40625 3.40625 0.68125
3.40625 0.68125 3.40625
0.68125 3.40625 3.40625
4.76875 2.04375 2.04375
2.04375 4.76875 2.04375
2.04375 2.04375 4.76875
4.76875 4.76875 4.76875
ITEM: TIMESTEP
7560
ITEM: NUMBER OF ATOMS
8
ITEM: BOX BOUNDS xy xz yz pp pp pp
0.0000000000000000e+00 5.5999999999999996e+00 0.0000000000000000e+00
0.0000000000000000e+00 5.5999999999999996e+00 0.0000000000000000e+00
0.0000000000000000e+00 5.5999999999999996e+00 0.0000000000000000e+00
ITEM: ATOMS x y z
0.68125 0.68125 0.68125
3.40625 3.40625 0.68125
3.40625 0.68125 3.40625
0.68125 3.40625 3.40625
4.76875 2.04375 2.04375
2.04375 4.76875 2.04375
2.04375 2.04375 4.76875
4.76875 4.76875 4.76875
ITEM: TIMESTEP
7570
ITEM: NUMBER OF ATOMS
8
ITEM: BOX BOUNDS xy xz yz pp pp pp
0.0000000000000000e+00 5.5999999999999996e+00 0.0000000000000000e+00
0.0000000000000000e+00 5.5999999999999996e+00 0.0000000000000000e+00
0.0000000000000000e+00 5.5999999999999996e+00 0.0000000000000000e+00
ITEM: ATOMS x y z
0.68125 0.68125 0.68125
3.40625 3.40625 0.68125
3.40625 0.68125 3.40625
0.68125 3.40625 3.40625
4.76875 2.04375 2.04375
2.04375 4.76875 2.04375
2.04375 2.04375 4.76875
4.76875 4.76875 4.76875
ITEM: TIMESTEP
7580
ITEM: NUMBER OF ATOMS
8
ITEM: BOX BOUNDS xy xz yz pp pp pp
0.0000000000000000e+00 5.5999999999999996e+00 0.0000000000000000e+00
0.0000000000000000e+00 5.5999999999999996e+00 0.0000000000000000e+00
0.0000000000000000e+00 5.5999999999999996e+00 0.0000000000000000e+00
ITEM: ATOMS x y z
0.68125 0.68125 0.68125
3.40625 3.40625 0.68125
3.40625 0.68125 3.40625
0.68125 3.40625 3.40625
4.76875 2.04375 2.04375
2.04375 4.76875 2.04375
2.04375 2.04375 4.76875
4.76875 4.76875 4.76875
ITEM: TIMESTEP
7590
ITEM: NUMBER OF ATOMS
8
ITEM: BOX BOUNDS xy xz yz pp pp pp
0.0000000000000000e+00 5.5999999999999996e+00 0.0000000000000000e+00
0.0000000000000000e+00 5.5999999999999996e+00 0.0000000000000000e+00
0.0000000000000000e+00 5.5999999999999996e+00 0.0000000000000000e+00
ITEM: ATOMS x y z
0.68125 0.68125 0.68125
3.40625 3.40625 0.68125
3.40625 0.68125 3.40625
0.68125 3.40625 3.40625
4.76875 2.04375 2.04375
2.04375 4.76875 2.04375
2.04375 2.04375 4.76875
4.76875 4.76875 4.76875
ITEM: TIMESTEP
7600
ITEM: NUMBER OF ATOMS
8
ITEM: BOX BOUNDS xy xz yz pp pp pp
0.0000000000000000e+00 5.5999999999999996e+00 0.0000000000000000e+00
0.0000000000000000e+00 5.5999999999999996e+00 0.0000000000000000e+00
0.0000000000000000e+00 5.5999999999999996e+00 0.0000000000000000e+00
ITEM: ATOMS x y z
0.68125 0.68125 0.68125
3.40625 3.40625 0.68125
3.40625 0.68125 3.40625
0.68125 3.40625 3.40625
4.76875 2.04375 2.04375
2.04375 4.76875 2.04375
2.04375 2.04375 4.76875
4.76875 4.76875 4.76875
ITEM: TIMESTEP
7610
ITEM: NUMBER OF ATOMS
8
ITEM: BOX BOUNDS xy xz yz pp pp pp
0.0000000000000000e+00 5.5999999999999996e+00 0.0000000000000000e+00
0.0000000000000000e+00 5.5999999999999996e+00 0.0000000000000000e+00
0.0000000000000000e+00 5.5999999999999996e+00 0.0000000000000000e+00
ITEM: ATOMS x y z
0.68125 0.68125 0.68125
3.40625 3.40625 0.68125
3.40625 0.68125 3.40625
0.68125 3.40625 3.40625
4.76875 2.04375 2.04375
2.04375 4.76875 2.04375
2.04375 2.04375 4.76875
4.76875 4.76875 4.76875
ITEM: TIMESTEP
7620
ITEM: NUMBER OF ATOMS
8
ITEM: BOX BOUNDS xy xz yz pp pp pp
0.0000000000000000e+00 5.5999999999999996e+00 0.0000000000000000e+00
0.0000000000000000e+00 5.5999999999999996e+00 0.0000000000000000e+00
0.0000000000000000e+00 5.5999999999999996e+00 0.0000000000000000e+00
ITEM: ATOMS x y z
0.68125 0.68125 0.68125
3.40625 3.40625 0.68125
3.40625 0.68125 3.40625
0.68125 3.40625 3.40625
4.76875 2.04375 2.04375
2.04375 4.76875 2.04375
2.04375 2.04375 4.76875
4.76875 4.76875 4.76875
ITEM: TIMESTEP
7630
ITEM: NUMBER OF ATOMS
8
ITEM: BOX BOUNDS xy xz yz pp pp pp
0.0000000000000000e+00 5.5999999999999996e+00 0.0000000000000000e+00
0.0000000000000000e+00 5.5999999999999996e+00 0.0000000000000000e+00
0.0000000000000000e+00 5.5999999999999996e+00 0.0000000000000000e+00
ITEM: ATOMS x y z
0.68125 0.68125 0.68125
3.40625 3.40625 0.68125
3.40625 0.68125 3.40625
0.68125 3.40625 3.40625
4.76875 2.04375 2.04375
2.04375 4.76875 2.04375
2.04375 2.04375 4.76875
4.76875 4.76875 4.76875
ITEM: TIMESTEP
7640
ITEM: NUMBER OF ATOMS
8
ITEM: BOX BOUNDS xy xz yz pp pp pp
0.0000000000000000e+00 5.5999999999999996e+00 0.0000000000000000e+00
0.0000000000000000e+00 5.5999999999999996e+00 0.0000000000000000e+00
0.0000000000000000e+00 5.5999999999999996e+00 0.0000000000000000e+00
ITEM: ATOMS x y z
0.68125 0.68125 0.68125
3.40625 3.40625 0.68125
3.40625 0.68125 3.40625
0.68125 3.40625 3.40625
4.76875 2.04375 2.04375
2.04375 4.76875 2.04375
2.04375 2.04375 4.76875
4.76875 4.76875 4.76875
ITEM: TIMESTEP
7650
ITEM: NUMBER OF ATOMS
8
ITEM: BOX BOUNDS xy xz yz pp pp pp
0.0000000000000000e+00 5.5999999999999996e+00 0.0000000000000000e+00
0.0000000000000000e+00 5.5999999999999996e+00 0.0000000000000000e+00
0.0000000000000000e+00 5.5999999999999996e+00 0.0000000000000000e+00
ITEM: ATOMS x y z
0.68125 0.68125 0.68125
3.40625 3.40625 0.68125
3.40625 0.68125 3.40625
0.68125 3.40625 3.40625
4.76875 2.04375 2.04375
2.04375 4.76875 2.04375
2.04375 2.04375 4.76875
4.76875 4.76875 4.76875
ITEM: TIMESTEP
7660
ITEM: NUMBER OF ATOMS
8
ITEM: BOX BOUNDS xy xz yz pp pp pp
0.0000000000000000e+00 5.5999999999999996e+00 0.0000000000000000e+00
0.0000000000000000e+00 5.5999999999999996e+00 0.0000000000000000e+00
0.0000000000000000e+00 5.5999999999999996e+00 0.0000000000000000e+00
ITEM: ATOMS x y z
0.68125 0.68125 0.68125
3.40625 3.40625 0.68125
3.40625 0.68125 3.40625
0.68125 3.40625 3.40625
4.76875 2.04375 2.04375
2.04375 4.76875 2.04375
2.04375 2.04375 4.76875
4.76875 4.76875 4.76875
ITEM: TIMESTEP
7670
ITEM: NUMBER OF ATOMS
8
ITEM: BOX BOUNDS xy xz yz pp pp pp
0.0000000000000000e+00 5.5999999999999996e+00 0.0000000000000000e+00
0.0000000000000000e+00 5.5999999999999996e+00 0.0000000000000000e+00
0.0000000000000000e+00 5.5999999999999996e+00 0.0000000000000000e+00
ITEM: ATOMS x y z
0.68125 0.68125 0.68125
3.40625 3.40625 0.68125
3.40625 0.68125 3.40625
0.68125 3.40625 3.40625
4.76875 2.04375 2.04375
2.04375 4.76875 2.04375
2.04375 2.04375 4.76875
4.76875 4.76875 4.76875
ITEM: TIMESTEP
7680
ITEM: NUMBER OF ATOMS
8
ITEM: BOX BOUNDS xy xz yz pp pp pp
0.0000000000000000e+00 5.5999999999999996e+00 0.0000000000000000e+00
0.0000000000000000e+00 5.5999999999999996e+00 0.0000000000000000e+00
0.0000000000000000e+00 5.5999999999999996e+00 0.0000000000000000e+00
ITEM: ATOMS x y z
0.68125 0.68125 0.68125
3.40625 3.40625 0.68125
3.40625 0.68125 3.40625
0.68125 3.40625 3.40625
4.76875 2.04375 2.04375
2.04375 4.76875 2.04375
2.04375 2.04375 4.76875
4.76875 4.76875 4.76875
ITEM: TIMESTEP
7690
ITEM: NUMBER OF ATOMS
8
ITEM: BOX BOUNDS xy xz yz pp pp pp
0.0000000000000000e+00 5.5999999999999996e+00 0.0000000000000000e+00
0.0000000000000000e+00 5.5999999999999996e+00 0.0000000000000000e+00
0.0000000000000000e+00 5.5999999999999996e+00 0.0000000000000000e+00
ITEM: ATOMS x y z
0.68125 0.68125 0.68125
3.40625 3.40625 0.68125
3.40625 0.68125 3.40625
0.68125 3.40625 3.40625
4.76875 2.04375 2.04375
2.04375 4.76875 2.04375
2.04375 2.04375 4.76875
4.76875 4.76875 4.76875
ITEM: TIMESTEP
7700
ITEM: NUMBER OF ATOMS
8
ITEM: BOX BOUNDS xy xz yz pp pp pp
0.0000000000000000e+00 5.5999999999999996e+00 0.0000000000000000e+00
0.0000000000000000e+00 5.5999999999999996e+00 0.0000000000000000e+00
0.0000000000000000e+00 5.5999999999999996e+00 0.0000000000000000e+00
ITEM: ATOMS x y z
0.68125 0.68125 0.68125
3.40625 3.40625 0.68125
3.40625 0.68125 3.40625
0.68125 3.40625 3.40625
4.76875 2.04375 2.04375
2.04375 4.76875 2.04375
2.04375 2.04375 4.76875
4.76875 4.76875 4.76875
ITEM: TIMESTEP
7710
ITEM: NUMBER OF ATOMS
8
ITEM: BOX BOUNDS xy xz yz pp pp pp
0.0000000000000000e+00 5.5999999999999996e+00 0.0000000000000000e+00
0.0000000000000000e+00 5.5999999999999996e+00 0.0000000000000000e+00
0.0000000000000000e+00 5.5999999999999996e+00 0.0000000000000000e+00
ITEM: ATOMS x y z
0.68125 0.68125 0.68125
3.40625 3.40625 0.68125
3.40625 0.68125 3.40625
0.68125 3.40625 3.40625
4.76875 2.04375 2.04375
2.04375 4.76875 2.04375
2.04375 2.04375 4.76875
4.76875 4.76875 4.76875
ITEM: TIMESTEP
7720
ITEM: NUMBER OF ATOMS
8
ITEM: BOX BOUNDS xy xz yz pp pp pp
0.0000000000000000e+00 5.5999999999999996e+00 0.0000000000000000e+00
0.0000000000000000e+00 5.5999999999999996e+00 0.0000000000000000e+00
0.0000000000000000e+00 5.5999999999999996e+00 0.0000000000000000e+00
ITEM: ATOMS x y z
0.68125 0.68125 0.68125
3.40625 3.40625 0.68125
3.40625 0.68125 3.40625
0.68125 3.40625 3.40625
4.76875 2.04375 2.04375
2.04375 4.76875 2.04375
2.04375 2.04375 4.76875
4.76875 4.76875 4.76875
ITEM: TIMESTEP
7730
ITEM: NUMBER OF ATOMS
8
ITEM: BOX BOUNDS xy xz yz pp pp pp
0.0000000000000000e+00 5.5999999999999996e+00 0.0000000000000000e+00
0.0000000000000000e+00 5.5999999999999996e+00 0.0000000000000000e+00
0.0000000000000000e+00 5.5999999999999996e+00 0.0000000000000000e+00
ITEM: ATOMS x y z
0.68125 0.68125 0.68125
3.40625 3.40625 0.68125
3.40625 0.68125 3.40625
0.68125 3.40625 3.40625
4.76875 2.04375 2.04375
2.04375 4.76875 2.04375
2.04375 2.04375 4.76875
4.76875 4.76875 4.76875
ITEM: TIMESTEP
7740
ITEM: NUMBER OF ATOMS
8
ITEM: BOX BOUNDS xy xz yz pp pp pp
0.0000000000000000e+00 5.5999999999999996e+00 0.0000000000000000e+00
0.0000000000000000e+00 5.5999999999999996e+00 0.0000000000000000e+00
0.0000000000000000e+00 5.5999999999999996e+00 0.0000000000000000e+00
ITEM: ATOMS x y z
0.68125 0.68125 0.68125
3.40625 3.40625 0.68125
3.40625 0.68125 3.40625
0.68125 3.40625 3.40625
4.76875 2.04375 2.04375
2.04375 4.76875 2.04375
2.04375 2.04375 4.76875
4.76875 4.76875 4.76875
ITEM: TIMESTEP
7750
ITEM: NUMBER OF ATOMS
8
ITEM: BOX BOUNDS xy xz yz pp pp pp
0.0000000000000000e+00 5.5999999999999996e+00 0.0000000000000000e+00
0.0000000000000000e+00 5.5999999999999996e+00 0.0000000000000000e+00
0.0000000000000000e+00 5.5999999999999996e+00 0.0000000000000000e+00
ITEM: ATOMS x y z
0.68125 0.68125 0.68125
3.40625 3.40625 0.68125
3.40625 0.68125 3.40625
0.68125 3.40625 3.40625
4.76875 2.04375 2.04375
2.04375 4.76875 2.04375
2.04375 2.04375 4.76875
4.76875 4.76875 4.76875
ITEM: TIMESTEP
7760
ITEM: NUMBER OF ATOMS
8
ITEM: BOX BOUNDS xy xz yz pp pp pp
0.0000000000000000e+00 5.5999999999999996e+00 0.0000000000000000e+00
0.0000000000000000e+00 5.5999999999999996e+00 0.0000000000000000e+00
0.0000000000000000e+00 5.5999999999999996e+00 0.0000000000000000e+00
ITEM: ATOMS x y z
0.68125 0.68125 0.68125
3.40625 3.40625 0.68125
3.40625 0.68125 3.40625
0.68125 3.40625 3.40625
4.76875 2.04375 2.04375
2.04375 4.76875 2.04375
2.04375 2.04375 4.76875
4.76875 4.76875 4.76875
ITEM: TIMESTEP
7770
ITEM: NUMBER OF ATOMS
8
ITEM: BOX BOUNDS xy xz yz pp pp pp
0.0000000000000000e+00 5.5999999999999996e+00 0.0000000000000000e+00
0.0000000000000000e+00 5.5999999999999996e+00 0.0000000000000000e+00
0.0000000000000000e+00 5.5999999999999996e+00 0.0000000000000000e+00
ITEM: ATOMS x y z
0.68125 0.68125 0.68125
3.40625 3.40625 0.68125
3.40625 0.68125 3.40625
0.68125 3.40625 3.40625
4.76875 2.04375 2.04375
2.04375 4.76875 2.04375
2.04375 2.04375 4.76875
4.76875 4.76875 4.76875
ITEM: TIMESTEP
7780
ITEM: NUMBER OF ATOMS
8
ITEM: BOX BOUNDS xy xz yz pp pp pp
0.0000000000000000e+00 5.5999999999999996e+00 0.0000000000000000e+00
0.0000000000000000e+00 5.5999999999999996e+00 0.0000000000000000e+00
0.0000000000000000e+00 5.5999999999999996e+00 0.0000000000000000e+00
ITEM: ATOMS x y z
0.68125 0.68125 0.68125
3.40625 3.40625 0.68125
3.40625 0.68125 3.40625
0.68125 3.40625 3.40625
4.76875 2.04375 2.04375
2.04375 4.76875 2.04375
2.04375 2.04375 4.76875
4.76875 4.76875 4.76875
ITEM: TIMESTEP
7790
ITEM: NUMBER OF ATOMS
8
ITEM: BOX BOUNDS xy xz yz pp pp pp
0.0000000000000000e+00 5.5999999999999996e+00 0.0000000000000000e+00
0.0000000000000000e+00 5.5999999999999996e+00 0.0000000000000000e+00
0.0000000000000000e+00 5.5999999999999996e+00 0.0000000000000000e+00
ITEM: ATOMS x y z
0.68125 0.68125 0.68125
3.40625 3.40625 0.68125
3.40625 0.68125 3.40625
0.68125 3.40625 3.40625
4.76875 2.04375 2.04375
2.04375 4.76875 2.04375
2.04375 2.04375 4.76875
4.76875 4.76875 4.76875
ITEM: TIMESTEP
7800
ITEM: NUMBER OF ATOMS
8
ITEM: BOX BOUNDS xy xz yz pp pp pp
0.0000000000000000e+00 5.5999999999999996e+00 0.0000000000000000e+00
0.0000000000000000e+00 5.5999999999999996e+00 0.0000000000000000e+00
0.0000000000000000e+00 5.5999999999999996e+00 0.0000000000000000e+00
ITEM: ATOMS x y z
0.68125 0.68125 0.68125
3.40625 3.40625 0.68125
3.40625 0.68125 3.40625
0.68125 3.40625 3.40625
4.76875 2.04375 2.04375
2.04375 4.76875 2.04375
2.04375 2.04375 4.76875
4.76875 4.76875 4.76875
ITEM: TIMESTEP
7810
ITEM: NUMBER OF ATOMS
8
ITEM: BOX BOUNDS xy xz yz pp pp pp
0.0000000000000000e+00 5.5999999999999996e+00 0.0000000000000000e+00
0.0000000000000000e+00 5.5999999999999996e+00 0.0000000000000000e+00
0.0000000000000000e+00 5.5999999999999996e+00 0.0000000000000000e+00
ITEM: ATOMS x y z
0.68125 0.68125 0.68125
3.40625 3.40625 0.68125
3.40625 0.68125 3.40625
0.68125 3.40625 3.40625
4.76875 2.04375 2.04375
2.04375 4.76875 2.04375
2.04375 2.04375 4.76875
4.76875 4.76875 4.76875
ITEM: TIMESTEP
7820
ITEM: NUMBER OF ATOMS
8
ITEM: BOX BOUNDS xy xz yz pp pp pp
0.0000000000000000e+00 5.5999999999999996e+00 0.0000000000000000e+00
0.0000000000000000e+00 5.5999999999999996e+00 0.0000000000000000e+00
0.0000000000000000e+00 5.5999999999999996e+00 0.0000000000000000e+00
ITEM: ATOMS x y z
0.68125 0.68125 0.68125
3.40625 3.40625 0.68125
3.40625 0.68125 3.40625
0.68125 3.40625 3.40625
4.76875 2.04375 2.04375
2.04375 4.76875 2.04375
2.04375 2.04375 4.76875
4.76875 4.76875 4.76875
ITEM: TIMESTEP
7830
ITEM: NUMBER OF ATOMS
8
ITEM: BOX BOUNDS xy xz yz pp pp pp
0.0000000000000000e+00 5.5999999999999996e+00 0.0000000000000000e+00
0.0000000000000000e+00 5.5999999999999996e+00 0.0000000000000000e+00
0.0000000000000000e+00 5.5999999999999996e+00 0.0000000000000000e+00
ITEM: ATOMS x y z
0.68125 0.68125 0.68125
3.40625 3.40625 0.68125
3.40625 0.68125 3.40625
0.68125 3.40625 3.40625
4.76875 2.04375 2.04375
2.04375 4.76875 2.04375
2.04375 2.04375 4.76875
4.76875 4.76875 4.76875
ITEM: TIMESTEP
7840
ITEM: NUMBER OF ATOMS
8
ITEM: BOX BOUNDS xy xz yz pp pp pp
0.0000000000000000e+00 5.5999999999999996e+00 0.0000000000000000e+00
0.0000000000000000e+00 5.5999999999999996e+00 0.0000000000000000e+00
0.0000000000000000e+00 5.5999999999999996e+00 0.0000000000000000e+00
ITEM: ATOMS x y z
0.68125 0.68125 0.68125
3.40625 3.40625 0.68125
3.40625 0.68125 3.40625
0.68125 3.40625 3.40625
4.76875 2.04375 2.04375
2.04375 4.76875 2.04375
2.04375 2.04375 4.76875
4.76875 4.76875 4.76875
ITEM: TIMESTEP
7850
ITEM: NUMBER OF ATOMS
8
ITEM: BOX BOUNDS xy xz yz pp pp pp
0.0000000000000000e+00 5.5999999999999996e+00 0.0000000000000000e+00
0.0000000000000000e+00 5.5999999999999996e+00 0.0000000000000000e+00
0.0000000000000000e+00 5.5999999999999996e+00 0.0000000000000000e+00
ITEM: ATOMS x y z
0.68125 0.68125 0.68125
3.40625 3.40625 0.68125
3.40625 0.68125 3.40625
0.68125 3.40625 3.40625
4.76875 2.04375 2.04375
2.04375 4.76875 2.04375
2.04375 2.04375 4.76875
4.76875 4.76875 4.76875
ITEM: TIMESTEP
7860
ITEM: NUMBER OF ATOMS
8
ITEM: BOX BOUNDS xy xz yz pp pp pp
0.0000000000000000e+00 5.5999999999999996e+00 0.0000000000000000e+00
0.0000000000000000e+00 5.5999999999999996e+00 0.0000000000000000e+00
0.0000000000000000e+00 5.5999999999999996e+00 0.0000000000000000e+00
ITEM: ATOMS x y z
0.68125 0.68125 0.68125
3.40625 3.40625 0.68125
3.40625 0.68125 3.40625
0.68125 3.40625 3.40625
4.76875 2.04375 2.04375
2.04375 4.76875 2.04375
2.04375 2.04375 4.76875
4.76875 4.76875 4.76875
ITEM: TIMESTEP
7870
ITEM: NUMBER OF ATOMS
8
ITEM: BOX BOUNDS xy xz yz pp pp pp
0.0000000000000000e+00 5.5999999999999996e+00 0.0000000000000000e+00
0.0000000000000000e+00 5.5999999999999996e+00 0.0000000000000000e+00
0.0000000000000000e+00 5.5999999999999996e+00 0.0000000000000000e+00
ITEM: ATOMS x y z
0.68125 0.68125 0.68125
3.40625 3.40625 0.68125
3.40625 0.68125 3.40625
0.68125 3.40625 3.40625
4.76875 2.04375 2.04375
2.04375 4.76875 2.04375
2.04375 2.04375 4.76875
4.76875 4.76875 4.76875
ITEM: TIMESTEP
7880
ITEM: NUMBER OF ATOMS
8
ITEM: BOX BOUNDS xy xz yz pp pp pp
0.0000000000000000e+00 5.5999999999999996e+00 0.0000000000000000e+00
0.0000000000000000e+00 5.5999999999999996e+00 0.0000000000000000e+00
0.0000000000000000e+00 5.5999999999999996e+00 0.0000000000000000e+00
ITEM: ATOMS x y z
0.68125 0.68125 0.68125
3.40625 3.40625 0.68125
3.40625 0.68125 3.40625
0.68125 3.40625 3.40625
4.76875 2.04375 2.04375
2.04375 4.76875 2.04375
2.04375 2.04375 4.76875
4.76875 4.76875 4.76875
ITEM: TIMESTEP
7890
ITEM: NUMBER OF ATOMS
8
ITEM: BOX BOUNDS xy xz yz pp pp pp
0.0000000000000000e+00 5.5999999999999996e+00 0.0000000000000000e+00
0.0000000000000000e+00 5.5999999999999996e+00 0.0000000000000000e+00
0.0000000000000000e+00 5.5999999999999996e+00 0.0000000000000000e+00
ITEM: ATOMS x y z
0.68125 0.68125 0.68125
3.40625 3.40625 0.68125
3.40625 0.68125 3.40625
0.68125 3.40625 3.40625
4.76875 2.04375 2.04375
2.04375 4.76875 2.04375
2.04375 2.04375 4.76875
4.76875 4.76875 4.76875
ITEM: TIMESTEP
7900
ITEM: NUMBER OF ATOMS
8
ITEM: BOX BOUNDS xy xz yz pp pp pp
0.0000000000000000e+00 5.5999999999999996e+00 0.0000000000000000e+00
0.0000000000000000e+00 5.5999999999999996e+00 0.0000000000000000e+00
0.0000000000000000e+00 5.5999999999999996e+00 0.0000000000000000e+00
ITEM: ATOMS x y z
0.68125 0.68125 0.68125
3.40625 3.40625 0.68125
3.40625 0.68125 3.40625
0.68125 3.40625 3.40625
4.76875 2.04375 2.04375
2.04375 4.76875 2.04375
2.04375 2.04375 4.76875
4.76875 4.76875 4.76875
ITEM: TIMESTEP
7910
ITEM: NUMBER OF ATOMS
8
ITEM: BOX BOUNDS xy xz yz pp pp pp
0.0000000000000000e+00 5.5999999999999996e+00 0.0000000000000000e+00
0.0000000000000000e+00 5.5999999999999996e+00 0.0000000000000000e+00
0.0000000000000000e+00 5.5999999999999996e+00 0.0000000000000000e+00
ITEM: ATOMS x y z
0.68125 0.68125 0.68125
3.40625 3.40625 0.68125
3.40625 0.68125 3.40625
0.68125 3.40625 3.40625
4.76875 2.04375 2.04375
2.04375 4.76875 2.04375
2.04375 2.04375 4.76875
4.76875 4.76875 4.76875
ITEM: TIMESTEP
7920
ITEM: NUMBER OF ATOMS
8
ITEM: BOX BOUNDS xy xz yz pp pp pp
0.0000000000000000e+00 5.5999999999999996e+00 0.0000000000000000e+00
0.0000000000000000e+00 5.5999999999999996e+00 0.0000000000000000e+00
0.0000000000000000e+00 5.5999999999999996e+00 0.0000000000000000e+00
ITEM: ATOMS x y z
0.68125 0.68125 0.68125
3.40625 3.40625 0.68125
3.40625 0.68125 3.40625
0.68125 3.40625 3.40625
4.76875 2.04375 2.04375
2.04375 4.76875 2.04375
2.04375 2.04375 4.76875
4.76875 4.76875 4.76875
ITEM: TIMESTEP
7930
ITEM: NUMBER OF ATOMS
8
ITEM: BOX BOUNDS xy xz yz pp pp pp
0.0000000000000000e+00 5.5999999999999996e+00 0.0000000000000000e+00
0.0000000000000000e+00 5.5999999999999996e+00 0.0000000000000000e+00
0.0000000000000000e+00 5.5999999999999996e+00 0.0000000000000000e+00
ITEM: ATOMS x y z
0.68125 0.68125 0.68125
3.40625 3.40625 0.68125
3.40625 0.68125 3.40625
0.68125 3.40625 3.40625
4.76875 2.04375 2.04375
2.04375 4.76875 2.04375
2.04375 2.04375 4.76875
4.76875 4.76875 4.76875
ITEM: TIMESTEP
7940
ITEM: NUMBER OF ATOMS
8
ITEM: BOX BOUNDS xy xz yz pp pp pp
0.0000000000000000e+00 5.5999999999999996e+00 0.0000000000000000e+00
0.0000000000000000e+00 5.5999999999999996e+00 0.0000000000000000e+00
0.0000000000000000e+00 5.5999999999999996e+00 0.0000000000000000e+00
ITEM: ATOMS x y z
0.68125 0.68125 0.68125
3.40625 3.40625 0.68125
3.40625 0.68125 3.40625
0.68125 3.40625 3.40625
4.76875 2.04375 2.04375
2.04375 4.76875 2.04375
2.04375 2.04375 4.76875
4.76875 4.76875 4.76875
ITEM: TIMESTEP
7950
ITEM: NUMBER OF ATOMS
8
ITEM: BOX BOUNDS xy xz yz pp pp pp
0.0000000000000000e+00 5.5999999999999996e+00 0.0000000000000000e+00
0.0000000000000000e+00 5.5999999999999996e+00 0.0000000000000000e+00
0.0000000000000000e+00 5.5999999999999996e+00 0.0000000000000000e+00
ITEM: ATOMS x y z
0.68125 0.68125 0.68125
3.40625 3.40625 0.68125
3.40625 0.68125 3.40625
0.68125 3.40625 3.40625
4.76875 2.04375 2.04375
2.04375 4.76875 2.04375
2.04375 2.04375 4.76875
4.76875 4.76875 4.76875
ITEM: TIMESTEP
7960
ITEM: NUMBER OF ATOMS
8
ITEM: BOX BOUNDS xy xz yz pp pp pp
0.0000000000000000e+00 5.5999999999999996e+00 0.0000000000000000e+00
0.0000000000000000e+00 5.5999999999999996e+00 0.0000000000000000e+00
0.0000000000000000e+00 5.5999999999999996e+00 0.0000000000000000e+00
ITEM: ATOMS x y z
0.68125 0.68125 0.68125
3.40625 3.40625 0.68125
3.40625 0.68125 3.40625
0.68125 3.40625 3.40625
4.76875 2.04375 2.04375
2.04375 4.76875 2.04375
2.04375 2.04375 4.76875
4.76875 4.76875 4.76875
ITEM: TIMESTEP
7970
ITEM: NUMBER OF ATOMS
8
ITEM: BOX BOUNDS xy xz yz pp pp pp
0.0000000000000000e+00 5.5999999999999996e+00 0.0000000000000000e+00
0.0000000000000000e+00 5.5999999999999996e+00 0.0000000000000000e+00
0.0000000000000000e+00 5.5999999999999996e+00 0.0000000000000000e+00
ITEM: ATOMS x y z
0.68125 0.68125 0.68125
3.40625 3.40625 0.68125
3.40625 0.68125 3.40625
0.68125 3.40625 3.40625
4.76875 2.04375 2.04375
2.04375 4.76875 2.04375
2.04375 2.04375 4.76875
4.76875 4.76875 4.76875
ITEM: TIMESTEP
7980
ITEM: NUMBER OF ATOMS
8
ITEM: BOX BOUNDS xy xz yz pp pp pp
0.0000000000000000e+00 5.5999999999999996e+00 0.0000000000000000e+00
0.0000000000000000e+00 5.5999999999999996e+00 0.0000000000000000e+00
0.0000000000000000e+00 5.5999999999999996e+00 0.0000000000000000e+00
ITEM: ATOMS x y z
0.68125 0.68125 0.68125
3.40625 3.40625 0.68125
3.40625 0.68125 3.40625
0.68125 3.40625 3.40625
4.76875 2.04375 2.04375
2.04375 4.76875 2.04375
2.04375 2.04375 4.76875
4.76875 4.76875 4.76875
ITEM: TIMESTEP
7990
ITEM: NUMBER OF ATOMS
8
ITEM: BOX BOUNDS xy xz yz pp pp pp
0.0000000000000000e+00 5.5999999999999996e+00 0.0000000000000000e+00
0.0000000000000000e+00 5.5999999999999996e+00 0.0000000000000000e+00
0.0000000000000000e+00 5.5999999999999996e+00 0.0000000000000000e+00
ITEM: ATOMS x y z
0.68125 0.68125 0.68125
3.40625 3.40625 0.68125
3.40625 0.68125 3.40625
0.68125 3.40625 3.40625
4.76875 2.04375 2.04375
2.04375 4.76875 2.04375
2.04375 2.04375 4.76875
4.76875 4.76875 4.76875
ITEM: TIMESTEP
8000
ITEM: NUMBER OF ATOMS
8
ITEM: BOX BOUNDS xy xz yz pp pp pp
0.0000000000000000e+00 5.5999999999999996e+00 0.0000000000000000e+00
0.0000000000000000e+00 5.5999999999999996e+00 0.0000000000000000e+00
0.0000000000000000e+00 5.5999999999999996e+00 0.0000000000000000e+00
ITEM: ATOMS x y z
0.68125 0.68125 0.68125
3.40625 3.40625 0.68125
3.40625 0.68125 3.40625
0.68125 3.40625 3.40625
4.76875 2.04375 2.04375
2.04375 4.76875 2.04375
2.04375 2.04375 4.76875
4.76875 4.76875 4.76875
ITEM: TIMESTEP
8010
ITEM: NUMBER OF ATOMS
8
ITEM: BOX BOUNDS xy xz yz pp pp pp
0.0000000000000000e+00 5.5999999999999996e+00 0.0000000000000000e+00
0.0000000000000000e+00 5.5999999999999996e+00 0.0000000000000000e+00
0.0000000000000000e+00 5.5999999999999996e+00 0.0000000000000000e+00
ITEM: ATOMS x y z
0.68125 0.68125 0.68125
3.40625 3.40625 0.68125
3.40625 0.68125 3.40625
0.68125 3.40625 3.40625
4.76875 2.04375 2.04375
2.04375 4.76875 2.04375
2.04375 2.04375 4.76875
4.76875 4.76875 4.76875
ITEM: TIMESTEP
8020
ITEM: NUMBER OF ATOMS
8
ITEM: BOX BOUNDS xy xz yz pp pp pp
0.0000000000000000e+00 5.5999999999999996e+00 0.0000000000000000e+00
0.0000000000000000e+00 5.5999999999999996e+00 0.0000000000000000e+00
0.0000000000000000e+00 5.5999999999999996e+00 0.0000000000000000e+00
ITEM: ATOMS x y z
0.68125 0.68125 0.68125
3.40625 3.40625 0.68125
3.40625 0.68125 3.40625
0.68125 3.40625 3.40625
4.76875 2.04375 2.04375
2.04375 4.76875 2.04375
2.04375 2.04375 4.76875
4.76875 4.76875 4.76875
ITEM: TIMESTEP
8030
ITEM: NUMBER OF ATOMS
8
ITEM: BOX BOUNDS xy xz yz pp pp pp
0.0000000000000000e+00 5.5999999999999996e+00 0.0000000000000000e+00
0.0000000000000000e+00 5.5999999999999996e+00 0.0000000000000000e+00
0.0000000000000000e+00 5.5999999999999996e+00 0.0000000000000000e+00
ITEM: ATOMS x y z
0.68125 0.68125 0.68125
3.40625 3.40625 0.68125
3.40625 0.68125 3.40625
0.68125 3.40625 3.40625
4.76875 2.04375 2.04375
2.04375 4.76875 2.04375
2.04375 2.04375 4.76875
4.76875 4.76875 4.76875
ITEM: TIMESTEP
8040
ITEM: NUMBER OF ATOMS
8
ITEM: BOX BOUNDS xy xz yz pp pp pp
0.0000000000000000e+00 5.5999999999999996e+00 0.0000000000000000e+00
0.0000000000000000e+00 5.5999999999999996e+00 0.0000000000000000e+00
0.0000000000000000e+00 5.5999999999999996e+00 0.0000000000000000e+00
ITEM: ATOMS x y z
0.68125 0.68125 0.68125
3.40625 3.40625 0.68125
3.40625 0.68125 3.40625
0.68125 3.40625 3.40625
4.76875 2.04375 2.04375
2.04375 4.76875 2.04375
2.04375 2.04375 4.76875
4.76875 4.76875 4.76875
ITEM: TIMESTEP
8050
ITEM: NUMBER OF ATOMS
8
ITEM: BOX BOUNDS xy xz yz pp pp pp
0.0000000000000000e+00 5.5999999999999996e+00 0.0000000000000000e+00
0.0000000000000000e+00 5.5999999999999996e+00 0.0000000000000000e+00
0.0000000000000000e+00 5.5999999999999996e+00 0.0000000000000000e+00
ITEM: ATOMS x y z
0.68125 0.68125 0.68125
3.40625 3.40625 0.68125
3.40625 0.68125 3.40625
0.68125 3.40625 3.40625
4.76875 2.04375 2.04375
2.04375 4.76875 2.04375
2.04375 2.04375 4.76875
4.76875 4.76875 4.76875
ITEM: TIMESTEP
8060
ITEM: NUMBER OF ATOMS
8
ITEM: BOX BOUNDS xy xz yz pp pp pp
0.0000000000000000e+00 5.5999999999999996e+00 0.0000000000000000e+00
0.0000000000000000e+00 5.5999999999999996e+00 0.0000000000000000e+00
0.0000000000000000e+00 5.5999999999999996e+00 0.0000000000000000e+00
ITEM: ATOMS x y z
0.68125 0.68125 0.68125
3.40625 3.40625 0.68125
3.40625 0.68125 3.40625
0.68125 3.40625 3.40625
4.76875 2.04375 2.04375
2.04375 4.76875 2.04375
2.04375 2.04375 4.76875
4.76875 4.76875 4.76875
ITEM: TIMESTEP
8070
ITEM: NUMBER OF ATOMS
8
ITEM: BOX BOUNDS xy xz yz pp pp pp
0.0000000000000000e+00 5.5999999999999996e+00 0.0000000000000000e+00
0.0000000000000000e+00 5.5999999999999996e+00 0.0000000000000000e+00
0.0000000000000000e+00 5.5999999999999996e+00 0.0000000000000000e+00
ITEM: ATOMS x y z
0.68125 0.68125 0.68125
3.40625 3.40625 0.68125
3.40625 0.68125 3.40625
0.68125 3.40625 3.40625
4.76875 2.04375 2.04375
2.04375 4.76875 2.04375
2.04375 2.04375 4.76875
4.76875 4.76875 4.76875
ITEM: TIMESTEP
8080
ITEM: NUMBER OF ATOMS
8
ITEM: BOX BOUNDS xy xz yz pp pp pp
0.0000000000000000e+00 5.5999999999999996e+00 0.0000000000000000e+00
0.0000000000000000e+00 5.5999999999999996e+00 0.0000000000000000e+00
0.0000000000000000e+00 5.5999999999999996e+00 0.0000000000000000e+00
ITEM: ATOMS x y z
0.68125 0.68125 0.68125
3.40625 3.40625 0.68125
3.40625 0.68125 3.40625
0.68125 3.40625 3.40625
4.76875 2.04375 2.04375
2.04375 4.76875 2.04375
2.04375 2.04375 4.76875
4.76875 4.76875 4.76875
ITEM: TIMESTEP
8090
ITEM: NUMBER OF ATOMS
8
ITEM: BOX BOUNDS xy xz yz pp pp pp
0.0000000000000000e+00 5.5999999999999996e+00 0.0000000000000000e+00
0.0000000000000000e+00 5.5999999999999996e+00 0.0000000000000000e+00
0.0000000000000000e+00 5.5999999999999996e+00 0.0000000000000000e+00
ITEM: ATOMS x y z
0.68125 0.68125 0.68125
3.40625 3.40625 0.68125
3.40625 0.68125 3.40625
0.68125 3.40625 3.40625
4.76875 2.04375 2.04375
2.04375 4.76875 2.04375
2.04375 2.04375 4.76875
4.76875 4.76875 4.76875
ITEM: TIMESTEP
8100
ITEM: NUMBER OF ATOMS
8
ITEM: BOX BOUNDS xy xz yz pp pp pp
0.0000000000000000e+00 5.5999999999999996e+00 0.0000000000000000e+00
0.0000000000000000e+00 5.5999999999999996e+00 0.0000000000000000e+00
0.0000000000000000e+00 5.5999999999999996e+00 0.0000000000000000e+00
ITEM: ATOMS x y z
0.68125 0.68125 0.68125
3.40625 3.40625 0.68125
3.40625 0.68125 3.40625
0.68125 3.40625 3.40625
4.76875 2.04375 2.04375
2.04375 4.76875 2.04375
2.04375 2.04375 4.76875
4.76875 4.76875 4.76875
ITEM: TIMESTEP
8110
ITEM: NUMBER OF ATOMS
8
ITEM: BOX BOUNDS xy xz yz pp pp pp
0.0000000000000000e+00 5.5999999999999996e+00 0.0000000000000000e+00
0.0000000000000000e+00 5.5999999999999996e+00 0.0000000000000000e+00
0.0000000000000000e+00 5.5999999999999996e+00 0.0000000000000000e+00
ITEM: ATOMS x y z
0.68125 0.68125 0.68125
3.40625 3.40625 0.68125
3.40625 0.68125 3.40625
0.68125 3.40625 3.40625
4.76875 2.04375 2.04375
2.04375 4.76875 2.04375
2.04375 2.04375 4.76875
4.76875 4.76875 4.76875
ITEM: TIMESTEP
8120
ITEM: NUMBER OF ATOMS
8
ITEM: BOX BOUNDS xy xz yz pp pp pp
0.0000000000000000e+00 5.5999999999999996e+00 0.0000000000000000e+00
0.0000000000000000e+00 5.5999999999999996e+00 0.0000000000000000e+00
0.0000000000000000e+00 5.5999999999999996e+00 0.0000000000000000e+00
ITEM: ATOMS x y z
0.68125 0.68125 0.68125
3.40625 3.40625 0.68125
3.40625 0.68125 3.40625
0.68125 3.40625 3.40625
4.76875 2.04375 2.04375
2.04375 4.76875 2.04375
2.04375 2.04375 4.76875
4.76875 4.76875 4.76875
ITEM: TIMESTEP
8130
ITEM: NUMBER OF ATOMS
8
ITEM: BOX BOUNDS xy xz yz pp pp pp
0.0000000000000000e+00 5.5999999999999996e+00 0.0000000000000000e+00
0.0000000000000000e+00 5.5999999999999996e+00 0.0000000000000000e+00
0.0000000000000000e+00 5.5999999999999996e+00 0.0000000000000000e+00
ITEM: ATOMS x y z
0.68125 0.68125 0.68125
3.40625 3.40625 0.68125
3.40625 0.68125 3.40625
0.68125 3.40625 3.40625
4.76875 2.04375 2.04375
2.04375 4.76875 2.04375
2.04375 2.04375 4.76875
4.76875 4.76875 4.76875
ITEM: TIMESTEP
8140
ITEM: NUMBER OF ATOMS
8
ITEM: BOX BOUNDS xy xz yz pp pp pp
0.0000000000000000e+00 5.5999999999999996e+00 0.0000000000000000e+00
0.0000000000000000e+00 5.5999999999999996e+00 0.0000000000000000e+00
0.0000000000000000e+00 5.5999999999999996e+00 0.0000000000000000e+00
ITEM: ATOMS x y z
0.68125 0.68125 0.68125
3.40625 3.40625 0.68125
3.40625 0.68125 3.40625
0.68125 3.40625 3.40625
4.76875 2.04375 2.04375
2.04375 4.76875 2.04375
2.04375 2.04375 4.76875
4.76875 4.76875 4.76875
ITEM: TIMESTEP
8150
ITEM: NUMBER OF ATOMS
8
ITEM: BOX BOUNDS xy xz yz pp pp pp
0.0000000000000000e+00 5.5999999999999996e+00 0.0000000000000000e+00
0.0000000000000000e+00 5.5999999999999996e+00 0.0000000000000000e+00
0.0000000000000000e+00 5.5999999999999996e+00 0.0000000000000000e+00
ITEM: ATOMS x y z
0.68125 0.68125 0.68125
3.40625 3.40625 0.68125
3.40625 0.68125 3.40625
0.68125 3.40625 3.40625
4.76875 2.04375 2.04375
2.04375 4.76875 2.04375
2.04375 2.04375 4.76875
4.76875 4.76875 4.76875
ITEM: TIMESTEP
8160
ITEM: NUMBER OF ATOMS
8
ITEM: BOX BOUNDS xy xz yz pp pp pp
0.0000000000000000e+00 5.5999999999999996e+00 0.0000000000000000e+00
0.0000000000000000e+00 5.5999999999999996e+00 0.0000000000000000e+00
0.0000000000000000e+00 5.5999999999999996e+00 0.0000000000000000e+00
ITEM: ATOMS x y z
0.68125 0.68125 0.68125
3.40625 3.40625 0.68125
3.40625 0.68125 3.40625
0.68125 3.40625 3.40625
4.76875 2.04375 2.04375
2.04375 4.76875 2.04375
2.04375 2.04375 4.76875
4.76875 4.76875 4.76875
ITEM: TIMESTEP
8170
ITEM: NUMBER OF ATOMS
8
ITEM: BOX BOUNDS xy xz yz pp pp pp
0.0000000000000000e+00 5.5999999999999996e+00 0.0000000000000000e+00
0.0000000000000000e+00 5.5999999999999996e+00 0.0000000000000000e+00
0.0000000000000000e+00 5.5999999999999996e+00 0.0000000000000000e+00
ITEM: ATOMS x y z
0.68125 0.68125 0.68125
3.40625 3.40625 0.68125
3.40625 0.68125 3.40625
0.68125 3.40625 3.40625
4.76875 2.04375 2.04375
2.04375 4.76875 2.04375
2.04375 2.04375 4.76875
4.76875 4.76875 4.76875
ITEM: TIMESTEP
8180
ITEM: NUMBER OF ATOMS
8
ITEM: BOX BOUNDS xy xz yz pp pp pp
0.0000000000000000e+00 5.5999999999999996e+00 0.0000000000000000e+00
0.0000000000000000e+00 5.5999999999999996e+00 0.0000000000000000e+00
0.0000000000000000e+00 5.5999999999999996e+00 0.0000000000000000e+00
ITEM: ATOMS x y z
0.68125 0.68125 0.68125
3.40625 3.40625 0.68125
3.40625 0.68125 3.40625
0.68125 3.40625 3.40625
4.76875 2.04375 2.04375
2.04375 4.76875 2.04375
2.04375 2.04375 4.76875
4.76875 4.76875 4.76875
ITEM: TIMESTEP
8190
ITEM: NUMBER OF ATOMS
8
ITEM: BOX BOUNDS xy xz yz pp pp pp
0.0000000000000000e+00 5.5999999999999996e+00 0.0000000000000000e+00
0.0000000000000000e+00 5.5999999999999996e+00 0.0000000000000000e+00
0.0000000000000000e+00 5.5999999999999996e+00 0.0000000000000000e+00
ITEM: ATOMS x y z
0.68125 0.68125 0.68125
3.40625 3.40625 0.68125
3.40625 0.68125 3.40625
0.68125 3.40625 3.40625
4.76875 2.04375 2.04375
2.04375 4.76875 2.04375
2.04375 2.04375 4.76875
4.76875 4.76875 4.76875
ITEM: TIMESTEP
8200
ITEM: NUMBER OF ATOMS
8
ITEM: BOX BOUNDS xy xz yz pp pp pp
0.0000000000000000e+00 5.5999999999999996e+00 0.0000000000000000e+00
0.0000000000000000e+00 5.5999999999999996e+00 0.0000000000000000e+00
0.0000000000000000e+00 5.5999999999999996e+00 0.0000000000000000e+00
ITEM: ATOMS x y z
0.68125 0.68125 0.68125
3.40625 3.40625 0.68125
3.40625 0.68125 3.40625
0.68125 3.40625 3.40625
4.76875 2.04375 2.04375
2.04375 4.76875 2.04375
2.04375 2.04375 4.76875
4.76875 4.76875 4.76875
ITEM: TIMESTEP
8210
ITEM: NUMBER OF ATOMS
8
ITEM: BOX BOUNDS xy xz yz pp pp pp
0.0000000000000000e+00 5.5999999999999996e+00 0.0000000000000000e+00
0.0000000000000000e+00 5.5999999999999996e+00 0.0000000000000000e+00
0.0000000000000000e+00 5.5999999999999996e+00 0.0000000000000000e+00
ITEM: ATOMS x y z
0.68125 0.68125 0.68125
3.40625 3.40625 0.68125
3.40625 0.68125 3.40625
0.68125 3.40625 3.40625
4.76875 2.04375 2.04375
2.04375 4.76875 2.04375
2.04375 2.04375 4.76875
4.76875 4.76875 4.76875
ITEM: TIMESTEP
8220
ITEM: NUMBER OF ATOMS
8
ITEM: BOX BOUNDS xy xz yz pp pp pp
0.0000000000000000e+00 5.5999999999999996e+00 0.0000000000000000e+00
0.0000000000000000e+00 5.5999999999999996e+00 0.0000000000000000e+00
0.0000000000000000e+00 5.5999999999999996e+00 0.0000000000000000e+00
ITEM: ATOMS x y z
0.68125 0.68125 0.68125
3.40625 3.40625 0.68125
3.40625 0.68125 3.40625
0.68125 3.40625 3.40625
4.76875 2.04375 2.04375
2.04375 4.76875 2.04375
2.04375 2.04375 4.76875
4.76875 4.76875 4.76875
ITEM: TIMESTEP
8230
ITEM: NUMBER OF ATOMS
8
ITEM: BOX BOUNDS xy xz yz pp pp pp
0.0000000000000000e+00 5.5999999999999996e+00 0.0000000000000000e+00
0.0000000000000000e+00 5.5999999999999996e+00 0.0000000000000000e+00
0.0000000000000000e+00 5.5999999999999996e+00 0.0000000000000000e+00
ITEM: ATOMS x y z
0.68125 0.68125 0.68125
3.40625 3.40625 0.68125
3.40625 0.68125 3.40625
0.68125 3.40625 3.40625
4.76875 2.04375 2.04375
2.04375 4.76875 2.04375
2.04375 2.04375 4.76875
4.76875 4.76875 4.76875
ITEM: TIMESTEP
8240
ITEM: NUMBER OF ATOMS
8
ITEM: BOX BOUNDS xy xz yz pp pp pp
0.0000000000000000e+00 5.5999999999999996e+00 0.0000000000000000e+00
0.0000000000000000e+00 5.5999999999999996e+00 0.0000000000000000e+00
0.0000000000000000e+00 5.5999999999999996e+00 0.0000000000000000e+00
ITEM: ATOMS x y z
0.68125 0.68125 0.68125
3.40625 3.40625 0.68125
3.40625 0.68125 3.40625
0.68125 3.40625 3.40625
4.76875 2.04375 2.04375
2.04375 4.76875 2.04375
2.04375 2.04375 4.76875
4.76875 4.76875 4.76875
ITEM: TIMESTEP
8250
ITEM: NUMBER OF ATOMS
8
ITEM: BOX BOUNDS xy xz yz pp pp pp
0.0000000000000000e+00 5.5999999999999996e+00 0.0000000000000000e+00
0.0000000000000000e+00 5.5999999999999996e+00 0.0000000000000000e+00
0.0000000000000000e+00 5.5999999999999996e+00 0.0000000000000000e+00
ITEM: ATOMS x y z
0.68125 0.68125 0.68125
3.40625 3.40625 0.68125
3.40625 0.68125 3.40625
0.68125 3.40625 3.40625
4.76875 2.04375 2.04375
2.04375 4.76875 2.04375
2.04375 2.04375 4.76875
4.76875 4.76875 4.76875
ITEM: TIMESTEP
8260
ITEM: NUMBER OF ATOMS
8
ITEM: BOX BOUNDS xy xz yz pp pp pp
0.0000000000000000e+00 5.5999999999999996e+00 0.0000000000000000e+00
0.0000000000000000e+00 5.5999999999999996e+00 0.0000000000000000e+00
0.0000000000000000e+00 5.5999999999999996e+00 0.0000000000000000e+00
ITEM: ATOMS x y z
0.68125 0.68125 0.68125
3.40625 3.40625 0.68125
3.40625 0.68125 3.40625
0.68125 3.40625 3.40625
4.76875 2.04375 2.04375
2.04375 4.76875 2.04375
2.04375 2.04375 4.76875
4.76875 4.76875 4.76875
ITEM: TIMESTEP
8270
ITEM: NUMBER OF ATOMS
8
ITEM: BOX BOUNDS xy xz yz pp pp pp
0.0000000000000000e+00 5.5999999999999996e+00 0.0000000000000000e+00
0.0000000000000000e+00 5.5999999999999996e+00 0.0000000000000000e+00
0.0000000000000000e+00 5.5999999999999996e+00 0.0000000000000000e+00
ITEM: ATOMS x y z
0.68125 0.68125 0.68125
3.40625 3.40625 0.68125
3.40625 0.68125 3.40625
0.68125 3.40625 3.40625
4.76875 2.04375 2.04375
2.04375 4.76875 2.04375
2.04375 2.04375 4.76875
4.76875 4.76875 4.76875
ITEM: TIMESTEP
8280
ITEM: NUMBER OF ATOMS
8
ITEM: BOX BOUNDS xy xz yz pp pp pp
0.0000000000000000e+00 5.5999999999999996e+00 0.0000000000000000e+00
0.0000000000000000e+00 5.5999999999999996e+00 0.0000000000000000e+00
0.0000000000000000e+00 5.5999999999999996e+00 0.0000000000000000e+00
ITEM: ATOMS x y z
0.68125 0.68125 0.68125
3.40625 3.40625 0.68125
3.40625 0.68125 3.40625
0.68125 3.40625 3.40625
4.76875 2.04375 2.04375
2.04375 4.76875 2.04375
2.04375 2.04375 4.76875
4.76875 4.76875 4.76875
ITEM: TIMESTEP
8290
ITEM: NUMBER OF ATOMS
8
ITEM: BOX BOUNDS xy xz yz pp pp pp
0.0000000000000000e+00 5.5999999999999996e+00 0.0000000000000000e+00
0.0000000000000000e+00 5.5999999999999996e+00 0.0000000000000000e+00
0.0000000000000000e+00 5.5999999999999996e+00 0.0000000000000000e+00
ITEM: ATOMS x y z
0.68125 0.68125 0.68125
3.40625 3.40625 0.68125
3.40625 0.68125 3.40625
0.68125 3.40625 3.40625
4.76875 2.04375 2.04375
2.04375 4.76875 2.04375
2.04375 2.04375 4.76875
4.76875 4.76875 4.76875
ITEM: TIMESTEP
8300
ITEM: NUMBER OF ATOMS
8
ITEM: BOX BOUNDS xy xz yz pp pp pp
0.0000000000000000e+00 5.5999999999999996e+00 0.0000000000000000e+00
0.0000000000000000e+00 5.5999999999999996e+00 0.0000000000000000e+00
0.0000000000000000e+00 5.5999999999999996e+00 0.0000000000000000e+00
ITEM: ATOMS x y z
0.68125 0.68125 0.68125
3.40625 3.40625 0.68125
3.40625 0.68125 3.40625
0.68125 3.40625 3.40625
4.76875 2.04375 2.04375
2.04375 4.76875 2.04375
2.04375 2.04375 4.76875
4.76875 4.76875 4.76875
ITEM: TIMESTEP
8310
ITEM: NUMBER OF ATOMS
8
ITEM: BOX BOUNDS xy xz yz pp pp pp
0.0000000000000000e+00 5.5999999999999996e+00 0.0000000000000000e+00
0.0000000000000000e+00 5.5999999999999996e+00 0.0000000000000000e+00
0.0000000000000000e+00 5.5999999999999996e+00 0.0000000000000000e+00
ITEM: ATOMS x y z
0.68125 0.68125 0.68125
3.40625 3.40625 0.68125
3.40625 0.68125 3.40625
0.68125 3.40625 3.40625
4.76875 2.04375 2.04375
2.04375 4.76875 2.04375
2.04375 2.04375 4.76875
4.76875 4.76875 4.76875
ITEM: TIMESTEP
8320
ITEM: NUMBER OF ATOMS
8
ITEM: BOX BOUNDS xy xz yz pp pp pp
0.0000000000000000e+00 5.5999999999999996e+00 0.0000000000000000e+00
0.0000000000000000e+00 5.5999999999999996e+00 0.0000000000000000e+00
0.0000000000000000e+00 5.5999999999999996e+00 0.0000000000000000e+00
ITEM: ATOMS x y z
0.68125 0.68125 0.68125
3.40625 3.40625 0.68125
3.40625 0.68125 3.40625
0.68125 3.40625 3.40625
4.76875 2.04375 2.04375
2.04375 4.76875 2.04375
2.04375 2.04375 4.76875
4.76875 4.76875 4.76875
ITEM: TIMESTEP
8330
ITEM: NUMBER OF ATOMS
8
ITEM: BOX BOUNDS xy xz yz pp pp pp
0.0000000000000000e+00 5.5999999999999996e+00 0.0000000000000000e+00
0.0000000000000000e+00 5.5999999999999996e+00 0.0000000000000000e+00
0.0000000000000000e+00 5.5999999999999996e+00 0.0000000000000000e+00
ITEM: ATOMS x y z
0.68125 0.68125 0.68125
3.40625 3.40625 0.68125
3.40625 0.68125 3.40625
0.68125 3.40625 3.40625
4.76875 2.04375 2.04375
2.04375 4.76875 2.04375
2.04375 2.04375 4.76875
4.76875 4.76875 4.76875
ITEM: TIMESTEP
8340
ITEM: NUMBER OF ATOMS
8
ITEM: BOX BOUNDS xy xz yz pp pp pp
0.0000000000000000e+00 5.5999999999999996e+00 0.0000000000000000e+00
0.0000000000000000e+00 5.5999999999999996e+00 0.0000000000000000e+00
0.0000000000000000e+00 5.5999999999999996e+00 0.0000000000000000e+00
ITEM: ATOMS x y z
0.68125 0.68125 0.68125
3.40625 3.40625 0.68125
3.40625 0.68125 3.40625
0.68125 3.40625 3.40625
4.76875 2.04375 2.04375
2.04375 4.76875 2.04375
2.04375 2.04375 4.76875
4.76875 4.76875 4.76875
ITEM: TIMESTEP
8350
ITEM: NUMBER OF ATOMS
8
ITEM: BOX BOUNDS xy xz yz pp pp pp
0.0000000000000000e+00 5.5999999999999996e+00 0.0000000000000000e+00
0.0000000000000000e+00 5.5999999999999996e+00 0.0000000000000000e+00
0.0000000000000000e+00 5.5999999999999996e+00 0.0000000000000000e+00
ITEM: ATOMS x y z
0.68125 0.68125 0.68125
3.40625 3.40625 0.68125
3.40625 0.68125 3.40625
0.68125 3.40625 3.40625
4.76875 2.04375 2.04375
2.04375 4.76875 2.04375
2.04375 2.04375 4.76875
4.76875 4.76875 4.76875
ITEM: TIMESTEP
8360
ITEM: NUMBER OF ATOMS
8
ITEM: BOX BOUNDS xy xz yz pp pp pp
0.0000000000000000e+00 5.5999999999999996e+00 0.0000000000000000e+00
0.0000000000000000e+00 5.5999999999999996e+00 0.0000000000000000e+00
0.0000000000000000e+00 5.5999999999999996e+00 0.0000000000000000e+00
ITEM: ATOMS x y z
0.68125 0.68125 0.68125
3.40625 3.40625 0.68125
3.40625 0.68125 3.40625
0.68125 3.40625 3.40625
4.76875 2.04375 2.04375
2.04375 4.76875 2.04375
2.04375 2.04375 4.76875
4.76875 4.76875 4.76875
ITEM: TIMESTEP
8370
ITEM: NUMBER OF ATOMS
8
ITEM: BOX BOUNDS xy xz yz pp pp pp
0.0000000000000000e+00 5.5999999999999996e+00 0.0000000000000000e+00
0.0000000000000000e+00 5.5999999999999996e+00 0.0000000000000000e+00
0.0000000000000000e+00 5.5999999999999996e+00 0.0000000000000000e+00
ITEM: ATOMS x y z
0.68125 0.68125 0.68125
3.40625 3.40625 0.68125
3.40625 0.68125 3.40625
0.68125 3.40625 3.40625
4.76875 2.04375 2.04375
2.04375 4.76875 2.04375
2.04375 2.04375 4.76875
4.76875 4.76875 4.76875
ITEM: TIMESTEP
8380
ITEM: NUMBER OF ATOMS
8
ITEM: BOX BOUNDS xy xz yz pp pp pp
0.0000000000000000e+00 5.5999999999999996e+00 0.0000000000000000e+00
0.0000000000000000e+00 5.5999999999999996e+00 0.0000000000000000e+00
0.0000000000000000e+00 5.5999999999999996e+00 0.0000000000000000e+00
ITEM: ATOMS x y z
0.68125 0.68125 0.68125
3.40625 3.40625 0.68125
3.40625 0.68125 3.40625
0.68125 3.40625 3.40625
4.76875 2.04375 2.04375
2.04375 4.76875 2.04375
2.04375 2.04375 4.76875
4.76875 4.76875 4.76875
ITEM: TIMESTEP
8390
ITEM: NUMBER OF ATOMS
8
ITEM: BOX BOUNDS xy xz yz pp pp pp
0.0000000000000000e+00 5.5999999999999996e+00 0.0000000000000000e+00
0.0000000000000000e+00 5.5999999999999996e+00 0.0000000000000000e+00
0.0000000000000000e+00 5.5999999999999996e+00 0.0000000000000000e+00
ITEM: ATOMS x y z
0.68125 0.68125 0.68125
3.40625 3.40625 0.68125
3.40625 0.68125 3.40625
0.68125 3.40625 3.40625
4.76875 2.04375 2.04375
2.04375 4.76875 2.04375
2.04375 2.04375 4.76875
4.76875 4.76875 4.76875
ITEM: TIMESTEP
8400
ITEM: NUMBER OF ATOMS
8
ITEM: BOX BOUNDS xy xz yz pp pp pp
0.0000000000000000e+00 5.5999999999999996e+00 0.0000000000000000e+00
0.0000000000000000e+00 5.5999999999999996e+00 0.0000000000000000e+00
0.0000000000000000e+00 5.5999999999999996e+00 0.0000000000000000e+00
ITEM: ATOMS x y z
0.68125 0.68125 0.68125
3.40625 3.40625 0.68125
3.40625 0.68125 3.40625
0.68125 3.40625 3.40625
4.76875 2.04375 2.04375
2.04375 4.76875 2.04375
2.04375 2.04375 4.76875
4.76875 4.76875 4.76875
ITEM: TIMESTEP
8410
ITEM: NUMBER OF ATOMS
8
ITEM: BOX BOUNDS xy xz yz pp pp pp
0.0000000000000000e+00 5.5999999999999996e+00 0.0000000000000000e+00
0.0000000000000000e+00 5.5999999999999996e+00 0.0000000000000000e+00
0.0000000000000000e+00 5.5999999999999996e+00 0.0000000000000000e+00
ITEM: ATOMS x y z
0.68125 0.68125 0.68125
3.40625 3.40625 0.68125
3.40625 0.68125 3.40625
0.68125 3.40625 3.40625
4.76875 2.04375 2.04375
2.04375 4.76875 2.04375
2.04375 2.04375 4.76875
4.76875 4.76875 4.76875
ITEM: TIMESTEP
8420
ITEM: NUMBER OF ATOMS
8
ITEM: BOX BOUNDS xy xz yz pp pp pp
0.0000000000000000e+00 5.5999999999999996e+00 0.0000000000000000e+00
0.0000000000000000e+00 5.5999999999999996e+00 0.0000000000000000e+00
0.0000000000000000e+00 5.5999999999999996e+00 0.0000000000000000e+00
ITEM: ATOMS x y z
0.68125 0.68125 0.68125
3.40625 3.40625 0.68125
3.40625 0.68125 3.40625
0.68125 3.40625 3.40625
4.76875 2.04375 2.04375
2.04375 4.76875 2.04375
2.04375 2.04375 4.76875
4.76875 4.76875 4.76875
ITEM: TIMESTEP
8430
ITEM: NUMBER OF ATOMS
8
ITEM: BOX BOUNDS xy xz yz pp pp pp
0.0000000000000000e+00 5.5999999999999996e+00 0.0000000000000000e+00
0.0000000000000000e+00 5.5999999999999996e+00 0.0000000000000000e+00
0.0000000000000000e+00 5.5999999999999996e+00 0.0000000000000000e+00
ITEM: ATOMS x y z
0.68125 0.68125 0.68125
3.40625 3.40625 0.68125
3.40625 0.68125 3.40625
0.68125 3.40625 3.40625
4.76875 2.04375 2.04375
2.04375 4.76875 2.04375
2.04375 2.04375 4.76875
4.76875 4.76875 4.76875
ITEM: TIMESTEP
8440
ITEM: NUMBER OF ATOMS
8
ITEM: BOX BOUNDS xy xz yz pp pp pp
0.0000000000000000e+00 5.5999999999999996e+00 0.0000000000000000e+00
0.0000000000000000e+00 5.5999999999999996e+00 0.0000000000000000e+00
0.0000000000000000e+00 5.5999999999999996e+00 0.0000000000000000e+00
ITEM: ATOMS x y z
0.68125 0.68125 0.68125
3.40625 3.40625 0.68125
3.40625 0.68125 3.40625
0.68125 3.40625 3.40625
4.76875 2.04375 2.04375
2.04375 4.76875 2.04375
2.04375 2.04375 4.76875
4.76875 4.76875 4.76875
ITEM: TIMESTEP
8450
ITEM: NUMBER OF ATOMS
8
ITEM: BOX BOUNDS xy xz yz pp pp pp
0.0000000000000000e+00 5.5999999999999996e+00 0.0000000000000000e+00
0.0000000000000000e+00 5.5999999999999996e+00 0.0000000000000000e+00
0.0000000000000000e+00 5.5999999999999996e+00 0.0000000000000000e+00
ITEM: ATOMS x y z
0.68125 0.68125 0.68125
3.40625 3.40625 0.68125
3.40625 0.68125 3.40625
0.68125 3.40625 3.40625
4.76875 2.04375 2.04375
2.04375 4.76875 2.04375
2.04375 2.04375 4.76875
4.76875 4.76875 4.76875
ITEM: TIMESTEP
8460
ITEM: NUMBER OF ATOMS
8
ITEM: BOX BOUNDS xy xz yz pp pp pp
0.0000000000000000e+00 5.5999999999999996e+00 0.0000000000000000e+00
0.0000000000000000e+00 5.5999999999999996e+00 0.0000000000000000e+00
0.0000000000000000e+00 5.5999999999999996e+00 0.0000000000000000e+00
ITEM: ATOMS x y z
0.68125 0.68125 0.68125
3.40625 3.40625 0.68125
3.40625 0.68125 3.40625
0.68125 3.40625 3.40625
4.76875 2.04375 2.04375
2.04375 4.76875 2.04375
2.04375 2.04375 4.76875
4.76875 4.76875 4.76875
ITEM: TIMESTEP
8470
ITEM: NUMBER OF ATOMS
8
ITEM: BOX BOUNDS xy xz yz pp pp pp
0.0000000000000000e+00 5.5999999999999996e+00 0.0000000000000000e+00
0.0000000000000000e+00 5.5999999999999996e+00 0.0000000000000000e+00
0.0000000000000000e+00 5.5999999999999996e+00 0.0000000000000000e+00
ITEM: ATOMS x y z
0.68125 0.68125 0.68125
3.40625 3.40625 0.68125
3.40625 0.68125 3.40625
0.68125 3.40625 3.40625
4.76875 2.04375 2.04375
2.04375 4.76875 2.04375
2.04375 2.04375 4.76875
4.76875 4.76875 4.76875
ITEM: TIMESTEP
8480
ITEM: NUMBER OF ATOMS
8
ITEM: BOX BOUNDS xy xz yz pp pp pp
0.0000000000000000e+00 5.5999999999999996e+00 0.0000000000000000e+00
0.0000000000000000e+00 5.5999999999999996e+00 0.0000000000000000e+00
0.0000000000000000e+00 5.5999999999999996e+00 0.0000000000000000e+00
ITEM: ATOMS x y z
0.68125 0.68125 0.68125
3.40625 3.40625 0.68125
3.40625 0.68125 3.40625
0.68125 3.40625 3.40625
4.76875 2.04375 2.04375
2.04375 4.76875 2.04375
2.04375 2.04375 4.76875
4.76875 4.76875 4.76875
ITEM: TIMESTEP
8490
ITEM: NUMBER OF ATOMS
8
ITEM: BOX BOUNDS xy xz yz pp pp pp
0.0000000000000000e+00 5.5999999999999996e+00 0.0000000000000000e+00
0.0000000000000000e+00 5.5999999999999996e+00 0.0000000000000000e+00
0.0000000000000000e+00 5.5999999999999996e+00 0.0000000000000000e+00
ITEM: ATOMS x y z
0.68125 0.68125 0.68125
3.40625 3.40625 0.68125
3.40625 0.68125 3.40625
0.68125 3.40625 3.40625
4.76875 2.04375 2.04375
2.04375 4.76875 2.04375
2.04375 2.04375 4.76875
4.76875 4.76875 4.76875
ITEM: TIMESTEP
8500
ITEM: NUMBER OF ATOMS
8
ITEM: BOX BOUNDS xy xz yz pp pp pp
0.0000000000000000e+00 5.5999999999999996e+00 0.0000000000000000e+00
0.0000000000000000e+00 5.5999999999999996e+00 0.0000000000000000e+00
0.0000000000000000e+00 5.5999999999999996e+00 0.0000000000000000e+00
ITEM: ATOMS x y z
0.68125 0.68125 0.68125
3.40625 3.40625 0.68125
3.40625 0.68125 3.40625
0.68125 3.40625 3.40625
4.76875 2.04375 2.04375
2.04375 4.76875 2.04375
2.04375 2.04375 4.76875
4.76875 4.76875 4.76875
ITEM: TIMESTEP
8510
ITEM: NUMBER OF ATOMS
8
ITEM: BOX BOUNDS xy xz yz pp pp pp
0.0000000000000000e+00 5.5999999999999996e+00 0.0000000000000000e+00
0.0000000000000000e+00 5.5999999999999996e+00 0.0000000000000000e+00
0.0000000000000000e+00 5.5999999999999996e+00 0.0000000000000000e+00
ITEM: ATOMS x y z
0.68125 0.68125 0.68125
3.40625 3.40625 0.68125
3.40625 0.68125 3.40625
0.68125 3.40625 3.40625
4.76875 2.04375 2.04375
2.04375 4.76875 2.04375
2.04375 2.04375 4.76875
4.76875 4.76875 4.76875
ITEM: TIMESTEP
8520
ITEM: NUMBER OF ATOMS
8
ITEM: BOX BOUNDS xy xz yz pp pp pp
0.0000000000000000e+00 5.5999999999999996e+00 0.0000000000000000e+00
0.0000000000000000e+00 5.5999999999999996e+00 0.0000000000000000e+00
0.0000000000000000e+00 5.5999999999999996e+00 0.0000000000000000e+00
ITEM: ATOMS x y z
0.68125 0.68125 0.68125
3.40625 3.40625 0.68125
3.40625 0.68125 3.40625
0.68125 3.40625 3.40625
4.76875 2.04375 2.04375
2.04375 4.76875 2.04375
2.04375 2.04375 4.76875
4.76875 4.76875 4.76875
ITEM: TIMESTEP
8530
ITEM: NUMBER OF ATOMS
8
ITEM: BOX BOUNDS xy xz yz pp pp pp
0.0000000000000000e+00 5.5999999999999996e+00 0.0000000000000000e+00
0.0000000000000000e+00 5.5999999999999996e+00 0.0000000000000000e+00
0.0000000000000000e+00 5.5999999999999996e+00 0.0000000000000000e+00
ITEM: ATOMS x y z
0.68125 0.68125 0.68125
3.40625 3.40625 0.68125
3.40625 0.68125 3.40625
0.68125 3.40625 3.40625
4.76875 2.04375 2.04375
2.04375 4.76875 2.04375
2.04375 2.04375 4.76875
4.76875 4.76875 4.76875
ITEM: TIMESTEP
8540
ITEM: NUMBER OF ATOMS
8
ITEM: BOX BOUNDS xy xz yz pp pp pp
0.0000000000000000e+00 5.5999999999999996e+00 0.0000000000000000e+00
0.0000000000000000e+00 5.5999999999999996e+00 0.0000000000000000e+00
0.0000000000000000e+00 5.5999999999999996e+00 0.0000000000000000e+00
ITEM: ATOMS x y z
0.68125 0.68125 0.68125
3.40625 3.40625 0.68125
3.40625 0.68125 3.40625
0.68125 3.40625 3.40625
4.76875 2.04375 2.04375
2.04375 4.76875 2.04375
2.04375 2.04375 4.76875
4.76875 4.76875 4.76875
ITEM: TIMESTEP
8550
ITEM: NUMBER OF ATOMS
8
ITEM: BOX BOUNDS xy xz yz pp pp pp
0.0000000000000000e+00 5.5999999999999996e+00 0.0000000000000000e+00
0.0000000000000000e+00 5.5999999999999996e+00 0.0000000000000000e+00
0.0000000000000000e+00 5.5999999999999996e+00 0.0000000000000000e+00
ITEM: ATOMS x y z
0.68125 0.68125 0.68125
3.40625 3.40625 0.68125
3.40625 0.68125 3.40625
0.68125 3.40625 3.40625
4.76875 2.04375 2.04375
2.04375 4.76875 2.04375
2.04375 2.04375 4.76875
4.76875 4.76875 4.76875
ITEM: TIMESTEP
8560
ITEM: NUMBER OF ATOMS
8
ITEM: BOX BOUNDS xy xz yz pp pp pp
0.0000000000000000e+00 5.5999999999999996e+00 0.0000000000000000e+00
0.0000000000000000e+00 5.5999999999999996e+00 0.0000000000000000e+00
0.0000000000000000e+00 5.5999999999999996e+00 0.0000000000000000e+00
ITEM: ATOMS x y z
0.68125 0.68125 0.68125
3.40625 3.40625 0.68125
3.40625 0.68125 3.40625
0.68125 3.40625 3.40625
4.76875 2.04375 2.04375
2.04375 4.76875 2.04375
2.04375 2.04375 4.76875
4.76875 4.76875 4.76875
ITEM: TIMESTEP
8570
ITEM: NUMBER OF ATOMS
8
ITEM: BOX BOUNDS xy xz yz pp pp pp
0.0000000000000000e+00 5.5999999999999996e+00 0.0000000000000000e+00
0.0000000000000000e+00 5.5999999999999996e+00 0.0000000000000000e+00
0.0000000000000000e+00 5.5999999999999996e+00 0.0000000000000000e+00
ITEM: ATOMS x y z
0.68125 0.68125 0.68125
3.40625 3.40625 0.68125
3.40625 0.68125 3.40625
0.68125 3.40625 3.40625
4.76875 2.04375 2.04375
2.04375 4.76875 2.04375
2.04375 2.04375 4.76875
4.76875 4.76875 4.76875
ITEM: TIMESTEP
8580
ITEM: NUMBER OF ATOMS
8
ITEM: BOX BOUNDS xy xz yz pp pp pp
0.0000000000000000e+00 5.5999999999999996e+00 0.0000000000000000e+00
0.0000000000000000e+00 5.5999999999999996e+00 0.0000000000000000e+00
0.0000000000000000e+00 5.5999999999999996e+00 0.0000000000000000e+00
ITEM: ATOMS x y z
0.68125 0.68125 0.68125
3.40625 3.40625 0.68125
3.40625 0.68125 3.40625
0.68125 3.40625 3.40625
4.76875 2.04375 2.04375
2.04375 4.76875 2.04375
2.04375 2.04375 4.76875
4.76875 4.76875 4.76875
ITEM: TIMESTEP
8590
ITEM: NUMBER OF ATOMS
8
ITEM: BOX BOUNDS xy xz yz pp pp pp
0.0000000000000000e+00 5.5999999999999996e+00 0.0000000000000000e+00
0.0000000000000000e+00 5.5999999999999996e+00 0.0000000000000000e+00
0.0000000000000000e+00 5.5999999999999996e+00 0.0000000000000000e+00
ITEM: ATOMS x y z
0.68125 0.68125 0.68125
3.40625 3.40625 0.68125
3.40625 0.68125 3.40625
0.68125 3.40625 3.40625
4.76875 2.04375 2.04375
2.04375 4.76875 2.04375
2.04375 2.04375 4.76875
4.76875 4.76875 4.76875
ITEM: TIMESTEP
8600
ITEM: NUMBER OF ATOMS
8
ITEM: BOX BOUNDS xy xz yz pp pp pp
0.0000000000000000e+00 5.5999999999999996e+00 0.0000000000000000e+00
0.0000000000000000e+00 5.5999999999999996e+00 0.0000000000000000e+00
0.0000000000000000e+00 5.5999999999999996e+00 0.0000000000000000e+00
ITEM: ATOMS x y z
0.68125 0.68125 0.68125
3.40625 3.40625 0.68125
3.40625 0.68125 3.40625
0.68125 3.40625 3.40625
4.76875 2.04375 2.04375
2.04375 4.76875 2.04375
2.04375 2.04375 4.76875
4.76875 4.76875 4.76875
ITEM: TIMESTEP
8610
ITEM: NUMBER OF ATOMS
8
ITEM: BOX BOUNDS xy xz yz pp pp pp
0.0000000000000000e+00 5.5999999999999996e+00 0.0000000000000000e+00
0.0000000000000000e+00 5.5999999999999996e+00 0.0000000000000000e+00
0.0000000000000000e+00 5.5999999999999996e+00 0.0000000000000000e+00
ITEM: ATOMS x y z
0.68125 0.68125 0.68125
3.40625 3.40625 0.68125
3.40625 0.68125 3.40625
0.68125 3.40625 3.40625
4.76875 2.04375 2.04375
2.04375 4.76875 2.04375
2.04375 2.04375 4.76875
4.76875 4.76875 4.76875
ITEM: TIMESTEP
8620
ITEM: NUMBER OF ATOMS
8
ITEM: BOX BOUNDS xy xz yz pp pp pp
0.0000000000000000e+00 5.5999999999999996e+00 0.0000000000000000e+00
0.0000000000000000e+00 5.5999999999999996e+00 0.0000000000000000e+00
0.0000000000000000e+00 5.5999999999999996e+00 0.0000000000000000e+00
ITEM: ATOMS x y z
0.68125 0.68125 0.68125
3.40625 3.40625 0.68125
3.40625 0.68125 3.40625
0.68125 3.40625 3.40625
4.76875 2.04375 2.04375
2.04375 4.76875 2.04375
2.04375 2.04375 4.76875
4.76875 4.76875 4.76875
ITEM: TIMESTEP
8630
ITEM: NUMBER OF ATOMS
8
ITEM: BOX BOUNDS xy xz yz pp pp pp
0.0000000000000000e+00 5.5999999999999996e+00 0.0000000000000000e+00
0.0000000000000000e+00 5.5999999999999996e+00 0.0000000000000000e+00
0.0000000000000000e+00 5.5999999999999996e+00 0.0000000000000000e+00
ITEM: ATOMS x y z
0.68125 0.68125 0.68125
3.40625 3.40625 0.68125
3.40625 0.68125 3.40625
0.68125 3.40625 3.40625
4.76875 2.04375 2.04375
2.04375 4.76875 2.04375
2.04375 2.04375 4.76875
4.76875 4.76875 4.76875
ITEM: TIMESTEP
8640
ITEM: NUMBER OF ATOMS
8
ITEM: BOX BOUNDS xy xz yz pp pp pp
0.0000000000000000e+00 5.5999999999999996e+00 0.0000000000000000e+00
0.0000000000000000e+00 5.5999999999999996e+00 0.0000000000000000e+00
0.0000000000000000e+00 5.5999999999999996e+00 0.0000000000000000e+00
ITEM: ATOMS x y z
0.68125 0.68125 0.68125
3.40625 3.40625 0.68125
3.40625 0.68125 3.40625
0.68125 3.40625 3.40625
4.76875 2.04375 2.04375
2.04375 4.76875 2.04375
2.04375 2.04375 4.76875
4.76875 4.76875 4.76875
ITEM: TIMESTEP
8650
ITEM: NUMBER OF ATOMS
8
ITEM: BOX BOUNDS xy xz yz pp pp pp
0.0000000000000000e+00 5.5999999999999996e+00 0.0000000000000000e+00
0.0000000000000000e+00 5.5999999999999996e+00 0.0000000000000000e+00
0.0000000000000000e+00 5.5999999999999996e+00 0.0000000000000000e+00
ITEM: ATOMS x y z
0.68125 0.68125 0.68125
3.40625 3.40625 0.68125
3.40625 0.68125 3.40625
0.68125 3.40625 3.40625
4.76875 2.04375 2.04375
2.04375 4.76875 2.04375
2.04375 2.04375 4.76875
4.76875 4.76875 4.76875
ITEM: TIMESTEP
8660
ITEM: NUMBER OF ATOMS
8
ITEM: BOX BOUNDS xy xz yz pp pp pp
0.0000000000000000e+00 5.5999999999999996e+00 0.0000000000000000e+00
0.0000000000000000e+00 5.5999999999999996e+00 0.0000000000000000e+00
0.0000000000000000e+00 5.5999999999999996e+00 0.0000000000000000e+00
ITEM: ATOMS x y z
0.68125 0.68125 0.68125
3.40625 3.40625 0.68125
3.40625 0.68125 3.40625
0.68125 3.40625 3.40625
4.76875 2.04375 2.04375
2.04375 4.76875 2.04375
2.04375 2.04375 4.76875
4.76875 4.76875 4.76875
ITEM: TIMESTEP
8670
ITEM: NUMBER OF ATOMS
8
ITEM: BOX BOUNDS xy xz yz pp pp pp
0.0000000000000000e+00 5.5999999999999996e+00 0.0000000000000000e+00
0.0000000000000000e+00 5.5999999999999996e+00 0.0000000000000000e+00
0.0000000000000000e+00 5.5999999999999996e+00 0.0000000000000000e+00
ITEM: ATOMS x y z
0.68125 0.68125 0.68125
3.40625 3.40625 0.68125
3.40625 0.68125 3.40625
0.68125 3.40625 3.40625
4.76875 2.04375 2.04375
2.04375 4.76875 2.04375
2.04375 2.04375 4.76875
4.76875 4.76875 4.76875
ITEM: TIMESTEP
8680
ITEM: NUMBER OF ATOMS
8
ITEM: BOX BOUNDS xy xz yz pp pp pp
0.0000000000000000e+00 5.5999999999999996e+00 0.0000000000000000e+00
0.0000000000000000e+00 5.5999999999999996e+00 0.0000000000000000e+00
0.0000000000000000e+00 5.5999999999999996e+00 0.0000000000000000e+00
ITEM: ATOMS x y z
0.68125 0.68125 0.68125
3.40625 3.40625 0.68125
3.40625 0.68125 3.40625
0.68125 3.40625 3.40625
4.76875 2.04375 2.04375
2.04375 4.76875 2.04375
2.04375 2.04375 4.76875
4.76875 4.76875 4.76875
ITEM: TIMESTEP
8690
ITEM: NUMBER OF ATOMS
8
ITEM: BOX BOUNDS xy xz yz pp pp pp
0.0000000000000000e+00 5.5999999999999996e+00 0.0000000000000000e+00
0.0000000000000000e+00 5.5999999999999996e+00 0.0000000000000000e+00
0.0000000000000000e+00 5.5999999999999996e+00 0.0000000000000000e+00
ITEM: ATOMS x y z
0.68125 0.68125 0.68125
3.40625 3.40625 0.68125
3.40625 0.68125 3.40625
0.68125 3.40625 3.40625
4.76875 2.04375 2.04375
2.04375 4.76875 2.04375
2.04375 2.04375 4.76875
4.76875 4.76875 4.76875
ITEM: TIMESTEP
8700
ITEM: NUMBER OF ATOMS
8
ITEM: BOX BOUNDS xy xz yz pp pp pp
0.0000000000000000e+00 5.5999999999999996e+00 0.0000000000000000e+00
0.0000000000000000e+00 5.5999999999999996e+00 0.0000000000000000e+00
0.0000000000000000e+00 5.5999999999999996e+00 0.0000000000000000e+00
ITEM: ATOMS x y z
0.68125 0.68125 0.68125
3.40625 3.40625 0.68125
3.40625 0.68125 3.40625
0.68125 3.40625 3.40625
4.76875 2.04375 2.04375
2.04375 4.76875 2.04375
2.04375 2.04375 4.76875
4.76875 4.76875 4.76875
ITEM: TIMESTEP
8710
ITEM: NUMBER OF ATOMS
8
ITEM: BOX BOUNDS xy xz yz pp pp pp
0.0000000000000000e+00 5.5999999999999996e+00 0.0000000000000000e+00
0.0000000000000000e+00 5.5999999999999996e+00 0.0000000000000000e+00
0.0000000000000000e+00 5.5999999999999996e+00 0.0000000000000000e+00
ITEM: ATOMS x y z
0.68125 0.68125 0.68125
3.40625 3.40625 0.68125
3.40625 0.68125 3.40625
0.68125 3.40625 3.40625
4.76875 2.04375 2.04375
2.04375 4.76875 2.04375
2.04375 2.04375 4.76875
4.76875 4.76875 4.76875
ITEM: TIMESTEP
8720
ITEM: NUMBER OF ATOMS
8
ITEM: BOX BOUNDS xy xz yz pp pp pp
0.0000000000000000e+00 5.5999999999999996e+00 0.0000000000000000e+00
0.0000000000000000e+00 5.5999999999999996e+00 0.0000000000000000e+00
0.0000000000000000e+00 5.5999999999999996e+00 0.0000000000000000e+00
ITEM: ATOMS x y z
0.68125 0.68125 0.68125
3.40625 3.40625 0.68125
3.40625 0.68125 3.40625
0.68125 3.40625 3.40625
4.76875 2.04375 2.04375
2.04375 4.76875 2.04375
2.04375 2.04375 4.76875
4.76875 4.76875 4.76875
ITEM: TIMESTEP
8730
ITEM: NUMBER OF ATOMS
8
ITEM: BOX BOUNDS xy xz yz pp pp pp
0.0000000000000000e+00 5.5999999999999996e+00 0.0000000000000000e+00
0.0000000000000000e+00 5.5999999999999996e+00 0.0000000000000000e+00
0.0000000000000000e+00 5.5999999999999996e+00 0.0000000000000000e+00
ITEM: ATOMS x y z
0.68125 0.68125 0.68125
3.40625 3.40625 0.68125
3.40625 0.68125 3.40625
0.68125 3.40625 3.40625
4.76875 2.04375 2.04375
2.04375 4.76875 2.04375
2.04375 2.04375 4.76875
4.76875 4.76875 4.76875
ITEM: TIMESTEP
8740
ITEM: NUMBER OF ATOMS
8
ITEM: BOX BOUNDS xy xz yz pp pp pp
0.0000000000000000e+00 5.5999999999999996e+00 0.0000000000000000e+00
0.0000000000000000e+00 5.5999999999999996e+00 0.0000000000000000e+00
0.0000000000000000e+00 5.5999999999999996e+00 0.0000000000000000e+00
ITEM: ATOMS x y z
0.68125 0.68125 0.68125
3.40625 3.40625 0.68125
3.40625 0.68125 3.40625
0.68125 3.40625 3.40625
4.76875 2.04375 2.04375
2.04375 4.76875 2.04375
2.04375 2.04375 4.76875
4.76875 4.76875 4.76875
ITEM: TIMESTEP
8750
ITEM: NUMBER OF ATOMS
8
ITEM: BOX BOUNDS xy xz yz pp pp pp
0.0000000000000000e+00 5.5999999999999996e+00 0.0000000000000000e+00
0.0000000000000000e+00 5.5999999999999996e+00 0.0000000000000000e+00
0.0000000000000000e+00 5.5999999999999996e+00 0.0000000000000000e+00
ITEM: ATOMS x y z
0.68125 0.68125 0.68125
3.40625 3.40625 0.68125
3.40625 0.68125 3.40625
0.68125 3.40625 3.40625
4.76875 2.04375 2.04375
2.04375 4.76875 2.04375
2.04375 2.04375 4.76875
4.76875 4.76875 4.76875
ITEM: TIMESTEP
8760
ITEM: NUMBER OF ATOMS
8
ITEM: BOX BOUNDS xy xz yz pp pp pp
0.0000000000000000e+00 5.5999999999999996e+00 0.0000000000000000e+00
0.0000000000000000e+00 5.5999999999999996e+00 0.0000000000000000e+00
0.0000000000000000e+00 5.5999999999999996e+00 0.0000000000000000e+00
ITEM: ATOMS x y z
0.68125 0.68125 0.68125
3.40625 3.40625 0.68125
3.40625 0.68125 3.40625
0.68125 3.40625 3.40625
4.76875 2.04375 2.04375
2.04375 4.76875 2.04375
2.04375 2.04375 4.76875
4.76875 4.76875 4.76875
ITEM: TIMESTEP
8770
ITEM: NUMBER OF ATOMS
8
ITEM: BOX BOUNDS xy xz yz pp pp pp
0.0000000000000000e+00 5.5999999999999996e+00 0.0000000000000000e+00
0.0000000000000000e+00 5.5999999999999996e+00 0.0000000000000000e+00
0.0000000000000000e+00 5.5999999999999996e+00 0.0000000000000000e+00
ITEM: ATOMS x y z
0.68125 0.68125 0.68125
3.40625 3.40625 0.68125
3.40625 0.68125 3.40625
0.68125 3.40625 3.40625
4.76875 2.04375 2.04375
2.04375 4.76875 2.04375
2.04375 2.04375 4.76875
4.76875 4.76875 4.76875
ITEM: TIMESTEP
8780
ITEM: NUMBER OF ATOMS
8
ITEM: BOX BOUNDS xy xz yz pp pp pp
0.0000000000000000e+00 5.5999999999999996e+00 0.0000000000000000e+00
0.0000000000000000e+00 5.5999999999999996e+00 0.0000000000000000e+00
0.0000000000000000e+00 5.5999999999999996e+00 0.0000000000000000e+00
ITEM: ATOMS x y z
0.68125 0.68125 0.68125
3.40625 3.40625 0.68125
3.40625 0.68125 3.40625
0.68125 3.40625 3.40625
4.76875 2.04375 2.04375
2.04375 4.76875 2.04375
2.04375 2.04375 4.76875
4.76875 4.76875 4.76875
ITEM: TIMESTEP
8790
ITEM: NUMBER OF ATOMS
8
ITEM: BOX BOUNDS xy xz yz pp pp pp
0.0000000000000000e+00 5.5999999999999996e+00 0.0000000000000000e+00
0.0000000000000000e+00 5.5999999999999996e+00 0.0000000000000000e+00
0.0000000000000000e+00 5.5999999999999996e+00 0.0000000000000000e+00
ITEM: ATOMS x y z
0.68125 0.68125 0.68125
3.40625 3.40625 0.68125
3.40625 0.68125 3.40625
0.68125 3.40625 3.40625
4.76875 2.04375 2.04375
2.04375 4.76875 2.04375
2.04375 2.04375 4.76875
4.76875 4.76875 4.76875
ITEM: TIMESTEP
8800
ITEM: NUMBER OF ATOMS
8
ITEM: BOX BOUNDS xy xz yz pp pp pp
0.0000000000000000e+00 5.5999999999999996e+00 0.0000000000000000e+00
0.0000000000000000e+00 5.5999999999999996e+00 0.0000000000000000e+00
0.0000000000000000e+00 5.5999999999999996e+00 0.0000000000000000e+00
ITEM: ATOMS x y z
0.68125 0.68125 0.68125
3.40625 3.40625 0.68125
3.40625 0.68125 3.40625
0.68125 3.40625 3.40625
4.76875 2.04375 2.04375
2.04375 4.76875 2.04375
2.04375 2.04375 4.76875
4.76875 4.76875 4.76875
ITEM: TIMESTEP
8810
ITEM: NUMBER OF ATOMS
8
ITEM: BOX BOUNDS xy xz yz pp pp pp
0.0000000000000000e+00 5.5999999999999996e+00 0.0000000000000000e+00
0.0000000000000000e+00 5.5999999999999996e+00 0.0000000000000000e+00
0.0000000000000000e+00 5.5999999999999996e+00 0.0000000000000000e+00
ITEM: ATOMS x y z
0.68125 0.68125 0.68125
3.40625 3.40625 0.68125
3.40625 0.68125 3.40625
0.68125 3.40625 3.40625
4.76875 2.04375 2.04375
2.04375 4.76875 2.04375
2.04375 2.04375 4.76875
4.76875 4.76875 4.76875
ITEM: TIMESTEP
8820
ITEM: NUMBER OF ATOMS
8
ITEM: BOX BOUNDS xy xz yz pp pp pp
0.0000000000000000e+00 5.5999999999999996e+00 0.0000000000000000e+00
0.0000000000000000e+00 5.5999999999999996e+00 0.0000000000000000e+00
0.0000000000000000e+00 5.5999999999999996e+00 0.0000000000000000e+00
ITEM: ATOMS x y z
0.68125 0.68125 0.68125
3.40625 3.40625 0.68125
3.40625 0.68125 3.40625
0.68125 3.40625 3.40625
4.76875 2.04375 2.04375
2.04375 4.76875 2.04375
2.04375 2.04375 4.76875
4.76875 4.76875 4.76875
ITEM: TIMESTEP
8830
ITEM: NUMBER OF ATOMS
8
ITEM: BOX BOUNDS xy xz yz pp pp pp
0.0000000000000000e+00 5.5999999999999996e+00 0.0000000000000000e+00
0.0000000000000000e+00 5.5999999999999996e+00 0.0000000000000000e+00
0.0000000000000000e+00 5.5999999999999996e+00 0.0000000000000000e+00
ITEM: ATOMS x y z
0.68125 0.68125 0.68125
3.40625 3.40625 0.68125
3.40625 0.68125 3.40625
0.68125 3.40625 3.40625
4.76875 2.04375 2.04375
2.04375 4.76875 2.04375
2.04375 2.04375 4.76875
4.76875 4.76875 4.76875
ITEM: TIMESTEP
8840
ITEM: NUMBER OF ATOMS
8
ITEM: BOX BOUNDS xy xz yz pp pp pp
0.0000000000000000e+00 5.5999999999999996e+00 0.0000000000000000e+00
0.0000000000000000e+00 5.5999999999999996e+00 0.0000000000000000e+00
0.0000000000000000e+00 5.5999999999999996e+00 0.0000000000000000e+00
ITEM: ATOMS x y z
0.68125 0.68125 0.68125
3.40625 3.40625 0.68125
3.40625 0.68125 3.40625
0.68125 3.40625 3.40625
4.76875 2.04375 2.04375
2.04375 4.76875 2.04375
2.04375 2.04375 4.76875
4.76875 4.76875 4.76875
ITEM: TIMESTEP
8850
ITEM: NUMBER OF ATOMS
8
ITEM: BOX BOUNDS xy xz yz pp pp pp
0.0000000000000000e+00 5.5999999999999996e+00 0.0000000000000000e+00
0.0000000000000000e+00 5.5999999999999996e+00 0.0000000000000000e+00
0.0000000000000000e+00 5.5999999999999996e+00 0.0000000000000000e+00
ITEM: ATOMS x y z
0.68125 0.68125 0.68125
3.40625 3.40625 0.68125
3.40625 0.68125 3.40625
0.68125 3.40625 3.40625
4.76875 2.04375 2.04375
2.04375 4.76875 2.04375
2.04375 2.04375 4.76875
4.76875 4.76875 4.76875
ITEM: TIMESTEP
8860
ITEM: NUMBER OF ATOMS
8
ITEM: BOX BOUNDS xy xz yz pp pp pp
0.0000000000000000e+00 5.5999999999999996e+00 0.0000000000000000e+00
0.0000000000000000e+00 5.5999999999999996e+00 0.0000000000000000e+00
0.0000000000000000e+00 5.5999999999999996e+00 0.0000000000000000e+00
ITEM: ATOMS x y z
0.68125 0.68125 0.68125
3.40625 3.40625 0.68125
3.40625 0.68125 3.40625
0.68125 3.40625 3.40625
4.76875 2.04375 2.04375
2.04375 4.76875 2.04375
2.04375 2.04375 4.76875
4.76875 4.76875 4.76875
ITEM: TIMESTEP
8870
ITEM: NUMBER OF ATOMS
8
ITEM: BOX BOUNDS xy xz yz pp pp pp
0.0000000000000000e+00 5.5999999999999996e+00 0.0000000000000000e+00
0.0000000000000000e+00 5.5999999999999996e+00 0.0000000000000000e+00
0.0000000000000000e+00 5.5999999999999996e+00 0.0000000000000000e+00
ITEM: ATOMS x y z
0.68125 0.68125 0.68125
3.40625 3.40625 0.68125
3.40625 0.68125 3.40625
0.68125 3.40625 3.40625
4.76875 2.04375 2.04375
2.04375 4.76875 2.04375
2.04375 2.04375 4.76875
4.76875 4.76875 4.76875
ITEM: TIMESTEP
8880
ITEM: NUMBER OF ATOMS
8
ITEM: BOX BOUNDS xy xz yz pp pp pp
0.0000000000000000e+00 5.5999999999999996e+00 0.0000000000000000e+00
0.0000000000000000e+00 5.5999999999999996e+00 0.0000000000000000e+00
0.0000000000000000e+00 5.5999999999999996e+00 0.0000000000000000e+00
ITEM: ATOMS x y z
0.68125 0.68125 0.68125
3.40625 3.40625 0.68125
3.40625 0.68125 3.40625
0.68125 3.40625 3.40625
4.76875 2.04375 2.04375
2.04375 4.76875 2.04375
2.04375 2.04375 4.76875
4.76875 4.76875 4.76875
ITEM: TIMESTEP
8890
ITEM: NUMBER OF ATOMS
8
ITEM: BOX BOUNDS xy xz yz pp pp pp
0.0000000000000000e+00 5.5999999999999996e+00 0.0000000000000000e+00
0.0000000000000000e+00 5.5999999999999996e+00 0.0000000000000000e+00
0.0000000000000000e+00 5.5999999999999996e+00 0.0000000000000000e+00
ITEM: ATOMS x y z
0.68125 0.68125 0.68125
3.40625 3.40625 0.68125
3.40625 0.68125 3.40625
0.68125 3.40625 3.40625
4.76875 2.04375 2.04375
2.04375 4.76875 2.04375
2.04375 2.04375 4.76875
4.76875 4.76875 4.76875
ITEM: TIMESTEP
8900
ITEM: NUMBER OF ATOMS
8
ITEM: BOX BOUNDS xy xz yz pp pp pp
0.0000000000000000e+00 5.5999999999999996e+00 0.0000000000000000e+00
0.0000000000000000e+00 5.5999999999999996e+00 0.0000000000000000e+00
0.0000000000000000e+00 5.5999999999999996e+00 0.0000000000000000e+00
ITEM: ATOMS x y z
0.68125 0.68125 0.68125
3.40625 3.40625 0.68125
3.40625 0.68125 3.40625
0.68125 3.40625 3.40625
4.76875 2.04375 2.04375
2.04375 4.76875 2.04375
2.04375 2.04375 4.76875
4.76875 4.76875 4.76875
ITEM: TIMESTEP
8910
ITEM: NUMBER OF ATOMS
8
ITEM: BOX BOUNDS xy xz yz pp pp pp
0.0000000000000000e+00 5.5999999999999996e+00 0.0000000000000000e+00
0.0000000000000000e+00 5.5999999999999996e+00 0.0000000000000000e+00
0.0000000000000000e+00 5.5999999999999996e+00 0.0000000000000000e+00
ITEM: ATOMS x y z
0.68125 0.68125 0.68125
3.40625 3.40625 0.68125
3.40625 0.68125 3.40625
0.68125 3.40625 3.40625
4.76875 2.04375 2.04375
2.04375 4.76875 2.04375
2.04375 2.04375 4.76875
4.76875 4.76875 4.76875
ITEM: TIMESTEP
8920
ITEM: NUMBER OF ATOMS
8
ITEM: BOX BOUNDS xy xz yz pp pp pp
0.0000000000000000e+00 5.5999999999999996e+00 0.0000000000000000e+00
0.0000000000000000e+00 5.5999999999999996e+00 0.0000000000000000e+00
0.0000000000000000e+00 5.5999999999999996e+00 0.0000000000000000e+00
ITEM: ATOMS x y z
0.68125 0.68125 0.68125
3.40625 3.40625 0.68125
3.40625 0.68125 3.40625
0.68125 3.40625 3.40625
4.76875 2.04375 2.04375
2.04375 4.76875 2.04375
2.04375 2.04375 4.76875
4.76875 4.76875 4.76875
ITEM: TIMESTEP
8930
ITEM: NUMBER OF ATOMS
8
ITEM: BOX BOUNDS xy xz yz pp pp pp
0.0000000000000000e+00 5.5999999999999996e+00 0.0000000000000000e+00
0.0000000000000000e+00 5.5999999999999996e+00 0.0000000000000000e+00
0.0000000000000000e+00 5.5999999999999996e+00 0.0000000000000000e+00
ITEM: ATOMS x y z
0.68125 0.68125 0.68125
3.40625 3.40625 0.68125
3.40625 0.68125 3.40625
0.68125 3.40625 3.40625
4.76875 2.04375 2.04375
2.04375 4.76875 2.04375
2.04375 2.04375 4.76875
4.76875 4.76875 4.76875
ITEM: TIMESTEP
8940
ITEM: NUMBER OF ATOMS
8
ITEM: BOX BOUNDS xy xz yz pp pp pp
0.0000000000000000e+00 5.5999999999999996e+00 0.0000000000000000e+00
0.0000000000000000e+00 5.5999999999999996e+00 0.0000000000000000e+00
0.0000000000000000e+00 5.5999999999999996e+00 0.0000000000000000e+00
ITEM: ATOMS x y z
0.68125 0.68125 0.68125
3.40625 3.40625 0.68125
3.40625 0.68125 3.40625
0.68125 3.40625 3.40625
4.76875 2.04375 2.04375
2.04375 4.76875 2.04375
2.04375 2.04375 4.76875
4.76875 4.76875 4.76875
ITEM: TIMESTEP
8950
ITEM: NUMBER OF ATOMS
8
ITEM: BOX BOUNDS xy xz yz pp pp pp
0.0000000000000000e+00 5.5999999999999996e+00 0.0000000000000000e+00
0.0000000000000000e+00 5.5999999999999996e+00 0.0000000000000000e+00
0.0000000000000000e+00 5.5999999999999996e+00 0.0000000000000000e+00
ITEM: ATOMS x y z
0.68125 0.68125 0.68125
3.40625 3.40625 0.68125
3.40625 0.68125 3.40625
0.68125 3.40625 3.40625
4.76875 2.04375 2.04375
2.04375 4.76875 2.04375
2.04375 2.04375 4.76875
4.76875 4.76875 4.76875
ITEM: TIMESTEP
8960
ITEM: NUMBER OF ATOMS
8
ITEM: BOX BOUNDS xy xz yz pp pp pp
0.0000000000000000e+00 5.5999999999999996e+00 0.0000000000000000e+00
0.0000000000000000e+00 5.5999999999999996e+00 0.0000000000000000e+00
0.0000000000000000e+00 5.5999999999999996e+00 0.0000000000000000e+00
ITEM: ATOMS x y z
0.68125 0.68125 0.68125
3.40625 3.40625 0.68125
3.40625 0.68125 3.40625
0.68125 3.40625 3.40625
4.76875 2.04375 2.04375
2.04375 4.76875 2.04375
2.04375 2.04375 4.76875
4.76875 4.76875 4.76875
ITEM: TIMESTEP
8970
ITEM: NUMBER OF ATOMS
8
ITEM: BOX BOUNDS xy xz yz pp pp pp
0.0000000000000000e+00 5.5999999999999996e+00 0.0000000000000000e+00
0.0000000000000000e+00 5.5999999999999996e+00 0.0000000000000000e+00
0.0000000000000000e+00 5.5999999999999996e+00 0.0000000000000000e+00
ITEM: ATOMS x y z
0.68125 0.68125 0.68125
3.40625 3.40625 0.68125
3.40625 0.68125 3.40625
0.68125 3.40625 3.40625
4.76875 2.04375 2.04375
2.04375 4.76875 2.04375
2.04375 2.04375 4.76875
4.76875 4.76875 4.76875
ITEM: TIMESTEP
8980
ITEM: NUMBER OF ATOMS
8
ITEM: BOX BOUNDS xy xz yz pp pp pp
0.0000000000000000e+00 5.5999999999999996e+00 0.0000000000000000e+00
0.0000000000000000e+00 5.5999999999999996e+00 0.0000000000000000e+00
0.0000000000000000e+00 5.5999999999999996e+00 0.0000000000000000e+00
ITEM: ATOMS x y z
0.68125 0.68125 0.68125
3.40625 3.40625 0.68125
3.40625 0.68125 3.40625
0.68125 3.40625 3.40625
4.76875 2.04375 2.04375
2.04375 4.76875 2.04375
2.04375 2.04375 4.76875
4.76875 4.76875 4.76875
ITEM: TIMESTEP
8990
ITEM: NUMBER OF ATOMS
8
ITEM: BOX BOUNDS xy xz yz pp pp pp
0.0000000000000000e+00 5.5999999999999996e+00 0.0000000000000000e+00
0.0000000000000000e+00 5.5999999999999996e+00 0.0000000000000000e+00
0.0000000000000000e+00 5.5999999999999996e+00 0.0000000000000000e+00
ITEM: ATOMS x y z
0.68125 0.68125 0.68125
3.40625 3.40625 0.68125
3.40625 0.68125 3.40625
0.68125 3.40625 3.40625
4.76875 2.04375 2.04375
2.04375 4.76875 2.04375
2.04375 2.04375 4.76875
4.76875 4.76875 4.76875
ITEM: TIMESTEP
9000
ITEM: NUMBER OF ATOMS
8
ITEM: BOX BOUNDS xy xz yz pp pp pp
0.0000000000000000e+00 5.5999999999999996e+00 0.0000000000000000e+00
0.0000000000000000e+00 5.5999999999999996e+00 0.0000000000000000e+00
0.0000000000000000e+00 5.5999999999999996e+00 0.0000000000000000e+00
ITEM: ATOMS x y z
0.68125 0.68125 0.68125
3.40625 3.40625 0.68125
3.40625 0.68125 3.40625
0.68125 3.40625 3.40625
4.76875 2.04375 2.04375
2.04375 4.76875 2.04375
2.04375 2.04375 4.76875
4.76875 4.76875 4.76875
ITEM: TIMESTEP
9010
ITEM: NUMBER OF ATOMS
8
ITEM: BOX BOUNDS xy xz yz pp pp pp
0.0000000000000000e+00 5.5999999999999996e+00 0.0000000000000000e+00
0.0000000000000000e+00 5.5999999999999996e+00 0.0000000000000000e+00
0.0000000000000000e+00 5.5999999999999996e+00 0.0000000000000000e+00
ITEM: ATOMS x y z
0.68125 0.68125 0.68125
3.40625 3.40625 0.68125
3.40625 0.68125 3.40625
0.68125 3.40625 3.40625
4.76875 2.04375 2.04375
2.04375 4.76875 2.04375
2.04375 2.04375 4.76875
4.76875 4.76875 4.76875
ITEM: TIMESTEP
9020
ITEM: NUMBER OF ATOMS
8
ITEM: BOX BOUNDS xy xz yz pp pp pp
0.0000000000000000e+00 5.5999999999999996e+00 0.0000000000000000e+00
0.0000000000000000e+00 5.5999999999999996e+00 0.0000000000000000e+00
0.0000000000000000e+00 5.5999999999999996e+00 0.0000000000000000e+00
ITEM: ATOMS x y z
0.68125 0.68125 0.68125
3.40625 3.40625 0.68125
3.40625 0.68125 3.40625
0.68125 3.40625 3.40625
4.76875 2.04375 2.04375
2.04375 4.76875 2.04375
2.04375 2.04375 4.76875
4.76875 4.76875 4.76875
ITEM: TIMESTEP
9030
ITEM: NUMBER OF ATOMS
8
ITEM: BOX BOUNDS xy xz yz pp pp pp
0.0000000000000000e+00 5.5999999999999996e+00 0.0000000000000000e+00
0.0000000000000000e+00 5.5999999999999996e+00 0.0000000000000000e+00
0.0000000000000000e+00 5.5999999999999996e+00 0.0000000000000000e+00
ITEM: ATOMS x y z
0.68125 0.68125 0.68125
3.40625 3.40625 0.68125
3.40625 0.68125 3.40625
0.68125 3.40625 3.40625
4.76875 2.04375 2.04375
2.04375 4.76875 2.04375
2.04375 2.04375 4.76875
4.76875 4.76875 4.76875
ITEM: TIMESTEP
9040
ITEM: NUMBER OF ATOMS
8
ITEM: BOX BOUNDS xy xz yz pp pp pp
0.0000000000000000e+00 5.5999999999999996e+00 0.0000000000000000e+00
0.0000000000000000e+00 5.5999999999999996e+00 0.0000000000000000e+00
0.0000000000000000e+00 5.5999999999999996e+00 0.0000000000000000e+00
ITEM: ATOMS x y z
0.68125 0.68125 0.68125
3.40625 3.40625 0.68125
3.40625 0.68125 3.40625
0.68125 3.40625 3.40625
4.76875 2.04375 2.04375
2.04375 4.76875 2.04375
2.04375 2.04375 4.76875
4.76875 4.76875 4.76875
ITEM: TIMESTEP
9050
ITEM: NUMBER OF ATOMS
8
ITEM: BOX BOUNDS xy xz yz pp pp pp
0.0000000000000000e+00 5.5999999999999996e+00 0.0000000000000000e+00
0.0000000000000000e+00 5.5999999999999996e+00 0.0000000000000000e+00
0.0000000000000000e+00 5.5999999999999996e+00 0.0000000000000000e+00
ITEM: ATOMS x y z
0.68125 0.68125 0.68125
3.40625 3.40625 0.68125
3.40625 0.68125 3.40625
0.68125 3.40625 3.40625
4.76875 2.04375 2.04375
2.04375 4.76875 2.04375
2.04375 2.04375 4.76875
4.76875 4.76875 4.76875
ITEM: TIMESTEP
9060
ITEM: NUMBER OF ATOMS
8
ITEM: BOX BOUNDS xy xz yz pp pp pp
0.0000000000000000e+00 5.5999999999999996e+00 0.0000000000000000e+00
0.0000000000000000e+00 5.5999999999999996e+00 0.0000000000000000e+00
0.0000000000000000e+00 5.5999999999999996e+00 0.0000000000000000e+00
ITEM: ATOMS x y z
0.68125 0.68125 0.68125
3.40625 3.40625 0.68125
3.40625 0.68125 3.40625
0.68125 3.40625 3.40625
4.76875 2.04375 2.04375
2.04375 4.76875 2.04375
2.04375 2.04375 4.76875
4.76875 4.76875 4.76875
ITEM: TIMESTEP
9070
ITEM: NUMBER OF ATOMS
8
ITEM: BOX BOUNDS xy xz yz pp pp pp
0.0000000000000000e+00 5.5999999999999996e+00 0.0000000000000000e+00
0.0000000000000000e+00 5.5999999999999996e+00 0.0000000000000000e+00
0.0000000000000000e+00 5.5999999999999996e+00 0.0000000000000000e+00
ITEM: ATOMS x y z
0.68125 0.68125 0.68125
3.40625 3.40625 0.68125
3.40625 0.68125 3.40625
0.68125 3.40625 3.40625
4.76875 2.04375 2.04375
2.04375 4.76875 2.04375
2.04375 2.04375 4.76875
4.76875 4.76875 4.76875
ITEM: TIMESTEP
9080
ITEM: NUMBER OF ATOMS
8
ITEM: BOX BOUNDS xy xz yz pp pp pp
0.0000000000000000e+00 5.5999999999999996e+00 0.0000000000000000e+00
0.0000000000000000e+00 5.5999999999999996e+00 0.0000000000000000e+00
0.0000000000000000e+00 5.5999999999999996e+00 0.0000000000000000e+00
ITEM: ATOMS x y z
0.68125 0.68125 0.68125
3.40625 3.40625 0.68125
3.40625 0.68125 3.40625
0.68125 3.40625 3.40625
4.76875 2.04375 2.04375
2.04375 4.76875 2.04375
2.04375 2.04375 4.76875
4.76875 4.76875 4.76875
ITEM: TIMESTEP
9090
ITEM: NUMBER OF ATOMS
8
ITEM: BOX BOUNDS xy xz yz pp pp pp
0.0000000000000000e+00 5.5999999999999996e+00 0.0000000000000000e+00
0.0000000000000000e+00 5.5999999999999996e+00 0.0000000000000000e+00
0.0000000000000000e+00 5.5999999999999996e+00 0.0000000000000000e+00
ITEM: ATOMS x y z
0.68125 0.68125 0.68125
3.40625 3.40625 0.68125
3.40625 0.68125 3.40625
0.68125 3.40625 3.40625
4.76875 2.04375 2.04375
2.04375 4.76875 2.04375
2.04375 2.04375 4.76875
4.76875 4.76875 4.76875
ITEM: TIMESTEP
9100
ITEM: NUMBER OF ATOMS
8
ITEM: BOX BOUNDS xy xz yz pp pp pp
0.0000000000000000e+00 5.5999999999999996e+00 0.0000000000000000e+00
0.0000000000000000e+00 5.5999999999999996e+00 0.0000000000000000e+00
0.0000000000000000e+00 5.5999999999999996e+00 0.0000000000000000e+00
ITEM: ATOMS x y z
0.68125 0.68125 0.68125
3.40625 3.40625 0.68125
3.40625 0.68125 3.40625
0.68125 3.40625 3.40625
4.76875 2.04375 2.04375
2.04375 4.76875 2.04375
2.04375 2.04375 4.76875
4.76875 4.76875 4.76875
ITEM: TIMESTEP
9110
ITEM: NUMBER OF ATOMS
8
ITEM: BOX BOUNDS xy xz yz pp pp pp
0.0000000000000000e+00 5.5999999999999996e+00 0.0000000000000000e+00
0.0000000000000000e+00 5.5999999999999996e+00 0.0000000000000000e+00
0.0000000000000000e+00 5.5999999999999996e+00 0.0000000000000000e+00
ITEM: ATOMS x y z
0.68125 0.68125 0.68125
3.40625 3.40625 0.68125
3.40625 0.68125 3.40625
0.68125 3.40625 3.40625
4.76875 2.04375 2.04375
2.04375 4.76875 2.04375
2.04375 2.04375 4.76875
4.76875 4.76875 4.76875
ITEM: TIMESTEP
9120
ITEM: NUMBER OF ATOMS
8
ITEM: BOX BOUNDS xy xz yz pp pp pp
0.0000000000000000e+00 5.5999999999999996e+00 0.0000000000000000e+00
0.0000000000000000e+00 5.5999999999999996e+00 0.0000000000000000e+00
0.0000000000000000e+00 5.5999999999999996e+00 0.0000000000000000e+00
ITEM: ATOMS x y z
0.68125 0.68125 0.68125
3.40625 3.40625 0.68125
3.40625 0.68125 3.40625
0.68125 3.40625 3.40625
4.76875 2.04375 2.04375
2.04375 4.76875 2.04375
2.04375 2.04375 4.76875
4.76875 4.76875 4.76875
ITEM: TIMESTEP
9130
ITEM: NUMBER OF ATOMS
8
ITEM: BOX BOUNDS xy xz yz pp pp pp
0.0000000000000000e+00 5.5999999999999996e+00 0.0000000000000000e+00
0.0000000000000000e+00 5.5999999999999996e+00 0.0000000000000000e+00
0.0000000000000000e+00 5.5999999999999996e+00 0.0000000000000000e+00
ITEM: ATOMS x y z
0.68125 0.68125 0.68125
3.40625 3.40625 0.68125
3.40625 0.68125 3.40625
0.68125 3.40625 3.40625
4.76875 2.04375 2.04375
2.04375 4.76875 2.04375
2.04375 2.04375 4.76875
4.76875 4.76875 4.76875
ITEM: TIMESTEP
9140
ITEM: NUMBER OF ATOMS
8
ITEM: BOX BOUNDS xy xz yz pp pp pp
0.0000000000000000e+00 5.5999999999999996e+00 0.0000000000000000e+00
0.0000000000000000e+00 5.5999999999999996e+00 0.0000000000000000e+00
0.0000000000000000e+00 5.5999999999999996e+00 0.0000000000000000e+00
ITEM: ATOMS x y z
0.68125 0.68125 0.68125
3.40625 3.40625 0.68125
3.40625 0.68125 3.40625
0.68125 3.40625 3.40625
4.76875 2.04375 2.04375
2.04375 4.76875 2.04375
2.04375 2.04375 4.76875
4.76875 4.76875 4.76875
ITEM: TIMESTEP
9150
ITEM: NUMBER OF ATOMS
8
ITEM: BOX BOUNDS xy xz yz pp pp pp
0.0000000000000000e+00 5.5999999999999996e+00 0.0000000000000000e+00
0.0000000000000000e+00 5.5999999999999996e+00 0.0000000000000000e+00
0.0000000000000000e+00 5.5999999999999996e+00 0.0000000000000000e+00
ITEM: ATOMS x y z
0.68125 0.68125 0.68125
3.40625 3.40625 0.68125
3.40625 0.68125 3.40625
0.68125 3.40625 3.40625
4.76875 2.04375 2.04375
2.04375 4.76875 2.04375
2.04375 2.04375 4.76875
4.76875 4.76875 4.76875
ITEM: TIMESTEP
9160
ITEM: NUMBER OF ATOMS
8
ITEM: BOX BOUNDS xy xz yz pp pp pp
0.0000000000000000e+00 5.5999999999999996e+00 0.0000000000000000e+00
0.0000000000000000e+00 5.5999999999999996e+00 0.0000000000000000e+00
0.0000000000000000e+00 5.5999999999999996e+00 0.0000000000000000e+00
ITEM: ATOMS x y z
0.68125 0.68125 0.68125
3.40625 3.40625 0.68125
3.40625 0.68125 3.40625
0.68125 3.40625 3.40625
4.76875 2.04375 2.04375
2.04375 4.76875 2.04375
2.04375 2.04375 4.76875
4.76875 4.76875 4.76875
ITEM: TIMESTEP
9170
ITEM: NUMBER OF ATOMS
8
ITEM: BOX BOUNDS xy xz yz pp pp pp
0.0000000000000000e+00 5.5999999999999996e+00 0.0000000000000000e+00
0.0000000000000000e+00 5.5999999999999996e+00 0.0000000000000000e+00
0.0000000000000000e+00 5.5999999999999996e+00 0.0000000000000000e+00
ITEM: ATOMS x y z
0.68125 0.68125 0.68125
3.40625 3.40625 0.68125
3.40625 0.68125 3.40625
0.68125 3.40625 3.40625
4.76875 2.04375 2.04375
2.04375 4.76875 2.04375
2.04375 2.04375 4.76875
4.76875 4.76875 4.76875
ITEM: TIMESTEP
9180
ITEM: NUMBER OF ATOMS
8
ITEM: BOX BOUNDS xy xz yz pp pp pp
0.0000000000000000e+00 5.5999999999999996e+00 0.0000000000000000e+00
0.0000000000000000e+00 5.5999999999999996e+00 0.0000000000000000e+00
0.0000000000000000e+00 5.5999999999999996e+00 0.0000000000000000e+00
ITEM: ATOMS x y z
0.68125 0.68125 0.68125
3.40625 3.40625 0.68125
3.40625 0.68125 3.40625
0.68125 3.40625 3.40625
4.76875 2.04375 2.04375
2.04375 4.76875 2.04375
2.04375 2.04375 4.76875
4.76875 4.76875 4.76875
ITEM: TIMESTEP
9190
ITEM: NUMBER OF ATOMS
8
ITEM: BOX BOUNDS xy xz yz pp pp pp
0.0000000000000000e+00 5.5999999999999996e+00 0.0000000000000000e+00
0.0000000000000000e+00 5.5999999999999996e+00 0.0000000000000000e+00
0.0000000000000000e+00 5.5999999999999996e+00 0.0000000000000000e+00
ITEM: ATOMS x y z
0.68125 0.68125 0.68125
3.40625 3.40625 0.68125
3.40625 0.68125 3.40625
0.68125 3.40625 3.40625
4.76875 2.04375 2.04375
2.04375 4.76875 2.04375
2.04375 2.04375 4.76875
4.76875 4.76875 4.76875
ITEM: TIMESTEP
9200
ITEM: NUMBER OF ATOMS
8
ITEM: BOX BOUNDS xy xz yz pp pp pp
0.0000000000000000e+00 5.5999999999999996e+00 0.0000000000000000e+00
0.0000000000000000e+00 5.5999999999999996e+00 0.0000000000000000e+00
0.0000000000000000e+00 5.5999999999999996e+00 0.0000000000000000e+00
ITEM: ATOMS x y z
0.68125 0.68125 0.68125
3.40625 3.40625 0.68125
3.40625 0.68125 3.40625
0.68125 3.40625 3.40625
4.76875 2.04375 2.04375
2.04375 4.76875 2.04375
2.04375 2.04375 4.76875
4.76875 4.76875 4.76875
ITEM: TIMESTEP
9210
ITEM: NUMBER OF ATOMS
8
ITEM: BOX BOUNDS xy xz yz pp pp pp
0.0000000000000000e+00 5.5999999999999996e+00 0.0000000000000000e+00
0.0000000000000000e+00 5.5999999999999996e+00 0.0000000000000000e+00
0.0000000000000000e+00 5.5999999999999996e+00 0.0000000000000000e+00
ITEM: ATOMS x y z
0.68125 0.68125 0.68125
3.40625 3.40625 0.68125
3.40625 0.68125 3.40625
0.68125 3.40625 3.40625
4.76875 2.04375 2.04375
2.04375 4.76875 2.04375
2.04375 2.04375 4.76875
4.76875 4.76875 4.76875
ITEM: TIMESTEP
9220
ITEM: NUMBER OF ATOMS
8
ITEM: BOX BOUNDS xy xz yz pp pp pp
0.0000000000000000e+00 5.5999999999999996e+00 0.0000000000000000e+00
0.0000000000000000e+00 5.5999999999999996e+00 0.0000000000000000e+00
0.0000000000000000e+00 5.5999999999999996e+00 0.0000000000000000e+00
ITEM: ATOMS x y z
0.68125 0.68125 0.68125
3.40625 3.40625 0.68125
3.40625 0.68125 3.40625
0.68125 3.40625 3.40625
4.76875 2.04375 2.04375
2.04375 4.76875 2.04375
2.04375 2.04375 4.76875
4.76875 4.76875 4.76875
ITEM: TIMESTEP
9230
ITEM: NUMBER OF ATOMS
8
ITEM: BOX BOUNDS xy xz yz pp pp pp
0.0000000000000000e+00 5.5999999999999996e+00 0.0000000000000000e+00
0.0000000000000000e+00 5.5999999999999996e+00 0.0000000000000000e+00
0.0000000000000000e+00 5.5999999999999996e+00 0.0000000000000000e+00
ITEM: ATOMS x y z
0.68125 0.68125 0.68125
3.40625 3.40625 0.68125
3.40625 0.68125 3.40625
0.68125 3.40625 3.40625
4.76875 2.04375 2.04375
2.04375 4.76875 2.04375
2.04375 2.04375 4.76875
4.76875 4.76875 4.76875
ITEM: TIMESTEP
9240
ITEM: NUMBER OF ATOMS
8
ITEM: BOX BOUNDS xy xz yz pp pp pp
0.0000000000000000e+00 5.5999999999999996e+00 0.0000000000000000e+00
0.0000000000000000e+00 5.5999999999999996e+00 0.0000000000000000e+00
0.0000000000000000e+00 5.5999999999999996e+00 0.0000000000000000e+00
ITEM: ATOMS x y z
0.68125 0.68125 0.68125
3.40625 3.40625 0.68125
3.40625 0.68125 3.40625
0.68125 3.40625 3.40625
4.76875 2.04375 2.04375
2.04375 4.76875 2.04375
2.04375 2.04375 4.76875
4.76875 4.76875 4.76875
ITEM: TIMESTEP
9250
ITEM: NUMBER OF ATOMS
8
ITEM: BOX BOUNDS xy xz yz pp pp pp
0.0000000000000000e+00 5.5999999999999996e+00 0.0000000000000000e+00
0.0000000000000000e+00 5.5999999999999996e+00 0.0000000000000000e+00
0.0000000000000000e+00 5.5999999999999996e+00 0.0000000000000000e+00
ITEM: ATOMS x y z
0.68125 0.68125 0.68125
3.40625 3.40625 0.68125
3.40625 0.68125 3.40625
0.68125 3.40625 3.40625
4.76875 2.04375 2.04375
2.04375 4.76875 2.04375
2.04375 2.04375 4.76875
4.76875 4.76875 4.76875
ITEM: TIMESTEP
9260
ITEM: NUMBER OF ATOMS
8
ITEM: BOX BOUNDS xy xz yz pp pp pp
0.0000000000000000e+00 5.5999999999999996e+00 0.0000000000000000e+00
0.0000000000000000e+00 5.5999999999999996e+00 0.0000000000000000e+00
0.0000000000000000e+00 5.5999999999999996e+00 0.0000000000000000e+00
ITEM: ATOMS x y z
0.68125 0.68125 0.68125
3.40625 3.40625 0.68125
3.40625 0.68125 3.40625
0.68125 3.40625 3.40625
4.76875 2.04375 2.04375
2.04375 4.76875 2.04375
2.04375 2.04375 4.76875
4.76875 4.76875 4.76875
ITEM: TIMESTEP
9270
ITEM: NUMBER OF ATOMS
8
ITEM: BOX BOUNDS xy xz yz pp pp pp
0.0000000000000000e+00 5.5999999999999996e+00 0.0000000000000000e+00
0.0000000000000000e+00 5.5999999999999996e+00 0.0000000000000000e+00
0.0000000000000000e+00 5.5999999999999996e+00 0.0000000000000000e+00
ITEM: ATOMS x y z
0.68125 0.68125 0.68125
3.40625 3.40625 0.68125
3.40625 0.68125 3.40625
0.68125 3.40625 3.40625
4.76875 2.04375 2.04375
2.04375 4.76875 2.04375
2.04375 2.04375 4.76875
4.76875 4.76875 4.76875
ITEM: TIMESTEP
9280
ITEM: NUMBER OF ATOMS
8
ITEM: BOX BOUNDS xy xz yz pp pp pp
0.0000000000000000e+00 5.5999999999999996e+00 0.0000000000000000e+00
0.0000000000000000e+00 5.5999999999999996e+00 0.0000000000000000e+00
0.0000000000000000e+00 5.5999999999999996e+00 0.0000000000000000e+00
ITEM: ATOMS x y z
0.68125 0.68125 0.68125
3.40625 3.40625 0.68125
3.40625 0.68125 3.40625
0.68125 3.40625 3.40625
4.76875 2.04375 2.04375
2.04375 4.76875 2.04375
2.04375 2.04375 4.76875
4.76875 4.76875 4.76875
ITEM: TIMESTEP
9290
ITEM: NUMBER OF ATOMS
8
ITEM: BOX BOUNDS xy xz yz pp pp pp
0.0000000000000000e+00 5.5999999999999996e+00 0.0000000000000000e+00
0.0000000000000000e+00 5.5999999999999996e+00 0.0000000000000000e+00
0.0000000000000000e+00 5.5999999999999996e+00 0.0000000000000000e+00
ITEM: ATOMS x y z
0.68125 0.68125 0.68125
3.40625 3.40625 0.68125
3.40625 0.68125 3.40625
0.68125 3.40625 3.40625
4.76875 2.04375 2.04375
2.04375 4.76875 2.04375
2.04375 2.04375 4.76875
4.76875 4.76875 4.76875
ITEM: TIMESTEP
9300
ITEM: NUMBER OF ATOMS
8
ITEM: BOX BOUNDS xy xz yz pp pp pp
0.0000000000000000e+00 5.5999999999999996e+00 0.0000000000000000e+00
0.0000000000000000e+00 5.5999999999999996e+00 0.0000000000000000e+00
0.0000000000000000e+00 5.5999999999999996e+00 0.0000000000000000e+00
ITEM: ATOMS x y z
0.68125 0.68125 0.68125
3.40625 3.40625 0.68125
3.40625 0.68125 3.40625
0.68125 3.40625 3.40625
4.76875 2.04375 2.04375
2.04375 4.76875 2.04375
2.04375 2.04375 4.76875
4.76875 4.76875 4.76875
ITEM: TIMESTEP
9310
ITEM: NUMBER OF ATOMS
8
ITEM: BOX BOUNDS xy xz yz pp pp pp
0.0000000000000000e+00 5.5999999999999996e+00 0.0000000000000000e+00
0.0000000000000000e+00 5.5999999999999996e+00 0.0000000000000000e+00
0.0000000000000000e+00 5.5999999999999996e+00 0.0000000000000000e+00
ITEM: ATOMS x y z
0.68125 0.68125 0.68125
3.40625 3.40625 0.68125
3.40625 0.68125 3.40625
0.68125 3.40625 3.40625
4.76875 2.04375 2.04375
2.04375 4.76875 2.04375
2.04375 2.04375 4.76875
4.76875 4.76875 4.76875
ITEM: TIMESTEP
9320
ITEM: NUMBER OF ATOMS
8
ITEM: BOX BOUNDS xy xz yz pp pp pp
0.0000000000000000e+00 5.5999999999999996e+00 0.0000000000000000e+00
0.0000000000000000e+00 5.5999999999999996e+00 0.0000000000000000e+00
0.0000000000000000e+00 5.5999999999999996e+00 0.0000000000000000e+00
ITEM: ATOMS x y z
0.68125 0.68125 0.68125
3.40625 3.40625 0.68125
3.40625 0.68125 3.40625
0.68125 3.40625 3.40625
4.76875 2.04375 2.04375
2.04375 4.76875 2.04375
2.04375 2.04375 4.76875
4.76875 4.76875 4.76875
ITEM: TIMESTEP
9330
ITEM: NUMBER OF ATOMS
8
ITEM: BOX BOUNDS xy xz yz pp pp pp
0.0000000000000000e+00 5.5999999999999996e+00 0.0000000000000000e+00
0.0000000000000000e+00 5.5999999999999996e+00 0.0000000000000000e+00
0.0000000000000000e+00 5.5999999999999996e+00 0.0000000000000000e+00
ITEM: ATOMS x y z
0.68125 0.68125 0.68125
3.40625 3.40625 0.68125
3.40625 0.68125 3.40625
0.68125 3.40625 3.40625
4.76875 2.04375 2.04375
2.04375 4.76875 2.04375
2.04375 2.04375 4.76875
4.76875 4.76875 4.76875
ITEM: TIMESTEP
9340
ITEM: NUMBER OF ATOMS
8
ITEM: BOX BOUNDS xy xz yz pp pp pp
0.0000000000000000e+00 5.5999999999999996e+00 0.0000000000000000e+00
0.0000000000000000e+00 5.5999999999999996e+00 0.0000000000000000e+00
0.0000000000000000e+00 5.5999999999999996e+00 0.0000000000000000e+00
ITEM: ATOMS x y z
0.68125 0.68125 0.68125
3.40625 3.40625 0.68125
3.40625 0.68125 3.40625
0.68125 3.40625 3.40625
4.76875 2.04375 2.04375
2.04375 4.76875 2.04375
2.04375 2.04375 4.76875
4.76875 4.76875 4.76875
ITEM: TIMESTEP
9350
ITEM: NUMBER OF ATOMS
8
ITEM: BOX BOUNDS xy xz yz pp pp pp
0.0000000000000000e+00 5.5999999999999996e+00 0.0000000000000000e+00
0.0000000000000000e+00 5.5999999999999996e+00 0.0000000000000000e+00
0.0000000000000000e+00 5.5999999999999996e+00 0.0000000000000000e+00
ITEM: ATOMS x y z
0.68125 0.68125 0.68125
3.40625 3.40625 0.68125
3.40625 0.68125 3.40625
0.68125 3.40625 3.40625
4.76875 2.04375 2.04375
2.04375 4.76875 2.04375
2.04375 2.04375 4.76875
4.76875 4.76875 4.76875
ITEM: TIMESTEP
9360
ITEM: NUMBER OF ATOMS
8
ITEM: BOX BOUNDS xy xz yz pp pp pp
0.0000000000000000e+00 5.5999999999999996e+00 0.0000000000000000e+00
0.0000000000000000e+00 5.5999999999999996e+00 0.0000000000000000e+00
0.0000000000000000e+00 5.5999999999999996e+00 0.0000000000000000e+00
ITEM: ATOMS x y z
0.68125 0.68125 0.68125
3.40625 3.40625 0.68125
3.40625 0.68125 3.40625
0.68125 3.40625 3.40625
4.76875 2.04375 2.04375
2.04375 4.76875 2.04375
2.04375 2.04375 4.76875
4.76875 4.76875 4.76875
ITEM: TIMESTEP
9370
ITEM: NUMBER OF ATOMS
8
ITEM: BOX BOUNDS xy xz yz pp pp pp
0.0000000000000000e+00 5.5999999999999996e+00 0.0000000000000000e+00
0.0000000000000000e+00 5.5999999999999996e+00 0.0000000000000000e+00
0.0000000000000000e+00 5.5999999999999996e+00 0.0000000000000000e+00
ITEM: ATOMS x y z
0.68125 0.68125 0.68125
3.40625 3.40625 0.68125
3.40625 0.68125 3.40625
0.68125 3.40625 3.40625
4.76875 2.04375 2.04375
2.04375 4.76875 2.04375
2.04375 2.04375 4.76875
4.76875 4.76875 4.76875
ITEM: TIMESTEP
9380
ITEM: NUMBER OF ATOMS
8
ITEM: BOX BOUNDS xy xz yz pp pp pp
0.0000000000000000e+00 5.5999999999999996e+00 0.0000000000000000e+00
0.0000000000000000e+00 5.5999999999999996e+00 0.0000000000000000e+00
0.0000000000000000e+00 5.5999999999999996e+00 0.0000000000000000e+00
ITEM: ATOMS x y z
0.68125 0.68125 0.68125
3.40625 3.40625 0.68125
3.40625 0.68125 3.40625
0.68125 3.40625 3.40625
4.76875 2.04375 2.04375
2.04375 4.76875 2.04375
2.04375 2.04375 4.76875
4.76875 4.76875 4.76875
ITEM: TIMESTEP
9390
ITEM: NUMBER OF ATOMS
8
ITEM: BOX BOUNDS xy xz yz pp pp pp
0.0000000000000000e+00 5.5999999999999996e+00 0.0000000000000000e+00
0.0000000000000000e+00 5.5999999999999996e+00 0.0000000000000000e+00
0.0000000000000000e+00 5.5999999999999996e+00 0.0000000000000000e+00
ITEM: ATOMS x y z
0.68125 0.68125 0.68125
3.40625 3.40625 0.68125
3.40625 0.68125 3.40625
0.68125 3.40625 3.40625
4.76875 2.04375 2.04375
2.04375 4.76875 2.04375
2.04375 2.04375 4.76875
4.76875 4.76875 4.76875
ITEM: TIMESTEP
9400
ITEM: NUMBER OF ATOMS
8
ITEM: BOX BOUNDS xy xz yz pp pp pp
0.0000000000000000e+00 5.5999999999999996e+00 0.0000000000000000e+00
0.0000000000000000e+00 5.5999999999999996e+00 0.0000000000000000e+00
0.0000000000000000e+00 5.5999999999999996e+00 0.0000000000000000e+00
ITEM: ATOMS x y z
0.68125 0.68125 0.68125
3.40625 3.40625 0.68125
3.40625 0.68125 3.40625
0.68125 3.40625 3.40625
4.76875 2.04375 2.04375
2.04375 4.76875 2.04375
2.04375 2.04375 4.76875
4.76875 4.76875 4.76875
ITEM: TIMESTEP
9410
ITEM: NUMBER OF ATOMS
8
ITEM: BOX BOUNDS xy xz yz pp pp pp
0.0000000000000000e+00 5.5999999999999996e+00 0.0000000000000000e+00
0.0000000000000000e+00 5.5999999999999996e+00 0.0000000000000000e+00
0.0000000000000000e+00 5.5999999999999996e+00 0.0000000000000000e+00
ITEM: ATOMS x y z
0.68125 0.68125 0.68125
3.40625 3.40625 0.68125
3.40625 0.68125 3.40625
0.68125 3.40625 3.40625
4.76875 2.04375 2.04375
2.04375 4.76875 2.04375
2.04375 2.04375 4.76875
4.76875 4.76875 4.76875
ITEM: TIMESTEP
9420
ITEM: NUMBER OF ATOMS
8
ITEM: BOX BOUNDS xy xz yz pp pp pp
0.0000000000000000e+00 5.5999999999999996e+00 0.0000000000000000e+00
0.0000000000000000e+00 5.5999999999999996e+00 0.0000000000000000e+00
0.0000000000000000e+00 5.5999999999999996e+00 0.0000000000000000e+00
ITEM: ATOMS x y z
0.68125 0.68125 0.68125
3.40625 3.40625 0.68125
3.40625 0.68125 3.40625
0.68125 3.40625 3.40625
4.76875 2.04375 2.04375
2.04375 4.76875 2.04375
2.04375 2.04375 4.76875
4.76875 4.76875 4.76875
ITEM: TIMESTEP
9430
ITEM: NUMBER OF ATOMS
8
ITEM: BOX BOUNDS xy xz yz pp pp pp
0.0000000000000000e+00 5.5999999999999996e+00 0.0000000000000000e+00
0.0000000000000000e+00 5.5999999999999996e+00 0.0000000000000000e+00
0.0000000000000000e+00 5.5999999999999996e+00 0.0000000000000000e+00
ITEM: ATOMS x y z
0.68125 0.68125 0.68125
3.40625 3.40625 0.68125
3.40625 0.68125 3.40625
0.68125 3.40625 3.40625
4.76875 2.04375 2.04375
2.04375 4.76875 2.04375
2.04375 2.04375 4.76875
4.76875 4.76875 4.76875
ITEM: TIMESTEP
9440
ITEM: NUMBER OF ATOMS
8
ITEM: BOX BOUNDS xy xz yz pp pp pp
0.0000000000000000e+00 5.5999999999999996e+00 0.0000000000000000e+00
0.0000000000000000e+00 5.5999999999999996e+00 0.0000000000000000e+00
0.0000000000000000e+00 5.5999999999999996e+00 0.0000000000000000e+00
ITEM: ATOMS x y z
0.68125 0.68125 0.68125
3.40625 3.40625 0.68125
3.40625 0.68125 3.40625
0.68125 3.40625 3.40625
4.76875 2.04375 2.04375
2.04375 4.76875 2.04375
2.04375 2.04375 4.76875
4.76875 4.76875 4.76875
ITEM: TIMESTEP
9450
ITEM: NUMBER OF ATOMS
8
ITEM: BOX BOUNDS xy xz yz pp pp pp
0.0000000000000000e+00 5.5999999999999996e+00 0.0000000000000000e+00
0.0000000000000000e+00 5.5999999999999996e+00 0.0000000000000000e+00
0.0000000000000000e+00 5.5999999999999996e+00 0.0000000000000000e+00
ITEM: ATOMS x y z
0.68125 0.68125 0.68125
3.40625 3.40625 0.68125
3.40625 0.68125 3.40625
0.68125 3.40625 3.40625
4.76875 2.04375 2.04375
2.04375 4.76875 2.04375
2.04375 2.04375 4.76875
4.76875 4.76875 4.76875
ITEM: TIMESTEP
9460
ITEM: NUMBER OF ATOMS
8
ITEM: BOX BOUNDS xy xz yz pp pp pp
0.0000000000000000e+00 5.5999999999999996e+00 0.0000000000000000e+00
0.0000000000000000e+00 5.5999999999999996e+00 0.0000000000000000e+00
0.0000000000000000e+00 5.5999999999999996e+00 0.0000000000000000e+00
ITEM: ATOMS x y z
0.68125 0.68125 0.68125
3.40625 3.40625 0.68125
3.40625 0.68125 3.40625
0.68125 3.40625 3.40625
4.76875 2.04375 2.04375
2.04375 4.76875 2.04375
2.04375 2.04375 4.76875
4.76875 4.76875 4.76875
ITEM: TIMESTEP
9470
ITEM: NUMBER OF ATOMS
8
ITEM: BOX BOUNDS xy xz yz pp pp pp
0.0000000000000000e+00 5.5999999999999996e+00 0.0000000000000000e+00
0.0000000000000000e+00 5.5999999999999996e+00 0.0000000000000000e+00
0.0000000000000000e+00 5.5999999999999996e+00 0.0000000000000000e+00
ITEM: ATOMS x y z
0.68125 0.68125 0.68125
3.40625 3.40625 0.68125
3.40625 0.68125 3.40625
0.68125 3.40625 3.40625
4.76875 2.04375 2.04375
2.04375 4.76875 2.04375
2.04375 2.04375 4.76875
4.76875 4.76875 4.76875
ITEM: TIMESTEP
9480
ITEM: NUMBER OF ATOMS
8
ITEM: BOX BOUNDS xy xz yz pp pp pp
0.0000000000000000e+00 5.5999999999999996e+00 0.0000000000000000e+00
0.0000000000000000e+00 5.5999999999999996e+00 0.0000000000000000e+00
0.0000000000000000e+00 5.5999999999999996e+00 0.0000000000000000e+00
ITEM: ATOMS x y z
0.68125 0.68125 0.68125
3.40625 3.40625 0.68125
3.40625 0.68125 3.40625
0.68125 3.40625 3.40625
4.76875 2.04375 2.04375
2.04375 4.76875 2.04375
2.04375 2.04375 4.76875
4.76875 4.76875 4.76875
ITEM: TIMESTEP
9490
ITEM: NUMBER OF ATOMS
8
ITEM: BOX BOUNDS xy xz yz pp pp pp
0.0000000000000000e+00 5.5999999999999996e+00 0.0000000000000000e+00
0.0000000000000000e+00 5.5999999999999996e+00 0.0000000000000000e+00
0.0000000000000000e+00 5.5999999999999996e+00 0.0000000000000000e+00
ITEM: ATOMS x y z
0.68125 0.68125 0.68125
3.40625 3.40625 0.68125
3.40625 0.68125 3.40625
0.68125 3.40625 3.40625
4.76875 2.04375 2.04375
2.04375 4.76875 2.04375
2.04375 2.04375 4.76875
4.76875 4.76875 4.76875
ITEM: TIMESTEP
9500
ITEM: NUMBER OF ATOMS
8
ITEM: BOX BOUNDS xy xz yz pp pp pp
0.0000000000000000e+00 5.5999999999999996e+00 0.0000000000000000e+00
0.0000000000000000e+00 5.5999999999999996e+00 0.0000000000000000e+00
0.0000000000000000e+00 5.5999999999999996e+00 0.0000000000000000e+00
ITEM: ATOMS x y z
0.68125 0.68125 0.68125
3.40625 3.40625 0.68125
3.40625 0.68125 3.40625
0.68125 3.40625 3.40625
4.76875 2.04375 2.04375
2.04375 4.76875 2.04375
2.04375 2.04375 4.76875
4.76875 4.76875 4.76875
ITEM: TIMESTEP
9510
ITEM: NUMBER OF ATOMS
8
ITEM: BOX BOUNDS xy xz yz pp pp pp
0.0000000000000000e+00 5.5999999999999996e+00 0.0000000000000000e+00
0.0000000000000000e+00 5.5999999999999996e+00 0.0000000000000000e+00
0.0000000000000000e+00 5.5999999999999996e+00 0.0000000000000000e+00
ITEM: ATOMS x y z
0.68125 0.68125 0.68125
3.40625 3.40625 0.68125
3.40625 0.68125 3.40625
0.68125 3.40625 3.40625
4.76875 2.04375 2.04375
2.04375 4.76875 2.04375
2.04375 2.04375 4.76875
4.76875 4.76875 4.76875
ITEM: TIMESTEP
9520
ITEM: NUMBER OF ATOMS
8
ITEM: BOX BOUNDS xy xz yz pp pp pp
0.0000000000000000e+00 5.5999999999999996e+00 0.0000000000000000e+00
0.0000000000000000e+00 5.5999999999999996e+00 0.0000000000000000e+00
0.0000000000000000e+00 5.5999999999999996e+00 0.0000000000000000e+00
ITEM: ATOMS x y z
0.68125 0.68125 0.68125
3.40625 3.40625 0.68125
3.40625 0.68125 3.40625
0.68125 3.40625 3.40625
4.76875 2.04375 2.04375
2.04375 4.76875 2.04375
2.04375 2.04375 4.76875
4.76875 4.76875 4.76875
ITEM: TIMESTEP
9530
ITEM: NUMBER OF ATOMS
8
ITEM: BOX BOUNDS xy xz yz pp pp pp
0.0000000000000000e+00 5.5999999999999996e+00 0.0000000000000000e+00
0.0000000000000000e+00 5.5999999999999996e+00 0.0000000000000000e+00
0.0000000000000000e+00 5.5999999999999996e+00 0.0000000000000000e+00
ITEM: ATOMS x y z
0.68125 0.68125 0.68125
3.40625 3.40625 0.68125
3.40625 0.68125 3.40625
0.68125 3.40625 3.40625
4.76875 2.04375 2.04375
2.04375 4.76875 2.04375
2.04375 2.04375 4.76875
4.76875 4.76875 4.76875
ITEM: TIMESTEP
9540
ITEM: NUMBER OF ATOMS
8
ITEM: BOX BOUNDS xy xz yz pp pp pp
0.0000000000000000e+00 5.5999999999999996e+00 0.0000000000000000e+00
0.0000000000000000e+00 5.5999999999999996e+00 0.0000000000000000e+00
0.0000000000000000e+00 5.5999999999999996e+00 0.0000000000000000e+00
ITEM: ATOMS x y z
0.68125 0.68125 0.68125
3.40625 3.40625 0.68125
3.40625 0.68125 3.40625
0.68125 3.40625 3.40625
4.76875 2.04375 2.04375
2.04375 4.76875 2.04375
2.04375 2.04375 4.76875
4.76875 4.76875 4.76875
ITEM: TIMESTEP
9550
ITEM: NUMBER OF ATOMS
8
ITEM: BOX BOUNDS xy xz yz pp pp pp
0.0000000000000000e+00 5.5999999999999996e+00 0.0000000000000000e+00
0.0000000000000000e+00 5.5999999999999996e+00 0.0000000000000000e+00
0.0000000000000000e+00 5.5999999999999996e+00 0.0000000000000000e+00
ITEM: ATOMS x y z
0.68125 0.68125 0.68125
3.40625 3.40625 0.68125
3.40625 0.68125 3.40625
0.68125 3.40625 3.40625
4.76875 2.04375 2.04375
2.04375 4.76875 2.04375
2.04375 2.04375 4.76875
4.76875 4.76875 4.76875
ITEM: TIMESTEP
9560
ITEM: NUMBER OF ATOMS
8
ITEM: BOX BOUNDS xy xz yz pp pp pp
0.0000000000000000e+00 5.5999999999999996e+00 0.0000000000000000e+00
0.0000000000000000e+00 5.5999999999999996e+00 0.0000000000000000e+00
0.0000000000000000e+00 5.5999999999999996e+00 0.0000000000000000e+00
ITEM: ATOMS x y z
0.68125 0.68125 0.68125
3.40625 3.40625 0.68125
3.40625 0.68125 3.40625
0.68125 3.40625 3.40625
4.76875 2.04375 2.04375
2.04375 4.76875 2.04375
2.04375 2.04375 4.76875
4.76875 4.76875 4.76875
ITEM: TIMESTEP
9570
ITEM: NUMBER OF ATOMS
8
ITEM: BOX BOUNDS xy xz yz pp pp pp
0.0000000000000000e+00 5.5999999999999996e+00 0.0000000000000000e+00
0.0000000000000000e+00 5.5999999999999996e+00 0.0000000000000000e+00
0.0000000000000000e+00 5.5999999999999996e+00 0.0000000000000000e+00
ITEM: ATOMS x y z
0.68125 0.68125 0.68125
3.40625 3.40625 0.68125
3.40625 0.68125 3.40625
0.68125 3.40625 3.40625
4.76875 2.04375 2.04375
2.04375 4.76875 2.04375
2.04375 2.04375 4.76875
4.76875 4.76875 4.76875
ITEM: TIMESTEP
9580
ITEM: NUMBER OF ATOMS
8
ITEM: BOX BOUNDS xy xz yz pp pp pp
0.0000000000000000e+00 5.5999999999999996e+00 0.0000000000000000e+00
0.0000000000000000e+00 5.5999999999999996e+00 0.0000000000000000e+00
0.0000000000000000e+00 5.5999999999999996e+00 0.0000000000000000e+00
ITEM: ATOMS x y z
0.68125 0.68125 0.68125
3.40625 3.40625 0.68125
3.40625 0.68125 3.40625
0.68125 3.40625 3.40625
4.76875 2.04375 2.04375
2.04375 4.76875 2.04375
2.04375 2.04375 4.76875
4.76875 4.76875 4.76875
ITEM: TIMESTEP
9590
ITEM: NUMBER OF ATOMS
8
ITEM: BOX BOUNDS xy xz yz pp pp pp
0.0000000000000000e+00 5.5999999999999996e+00 0.0000000000000000e+00
0.0000000000000000e+00 5.5999999999999996e+00 0.0000000000000000e+00
0.0000000000000000e+00 5.5999999999999996e+00 0.0000000000000000e+00
ITEM: ATOMS x y z
0.68125 0.68125 0.68125
3.40625 3.40625 0.68125
3.40625 0.68125 3.40625
0.68125 3.40625 3.40625
4.76875 2.04375 2.04375
2.04375 4.76875 2.04375
2.04375 2.04375 4.76875
4.76875 4.76875 4.76875
ITEM: TIMESTEP
9600
ITEM: NUMBER OF ATOMS
8
ITEM: BOX BOUNDS xy xz yz pp pp pp
0.0000000000000000e+00 5.5999999999999996e+00 0.0000000000000000e+00
0.0000000000000000e+00 5.5999999999999996e+00 0.0000000000000000e+00
0.0000000000000000e+00 5.5999999999999996e+00 0.0000000000000000e+00
ITEM: ATOMS x y z
0.68125 0.68125 0.68125
3.40625 3.40625 0.68125
3.40625 0.68125 3.40625
0.68125 3.40625 3.40625
4.76875 2.04375 2.04375
2.04375 4.76875 2.04375
2.04375 2.04375 4.76875
4.76875 4.76875 4.76875
ITEM: TIMESTEP
9610
ITEM: NUMBER OF ATOMS
8
ITEM: BOX BOUNDS xy xz yz pp pp pp
0.0000000000000000e+00 5.5999999999999996e+00 0.0000000000000000e+00
0.0000000000000000e+00 5.5999999999999996e+00 0.0000000000000000e+00
0.0000000000000000e+00 5.5999999999999996e+00 0.0000000000000000e+00
ITEM: ATOMS x y z
0.68125 0.68125 0.68125
3.40625 3.40625 0.68125
3.40625 0.68125 3.40625
0.68125 3.40625 3.40625
4.76875 2.04375 2.04375
2.04375 4.76875 2.04375
2.04375 2.04375 4.76875
4.76875 4.76875 4.76875
ITEM: TIMESTEP
9620
ITEM: NUMBER OF ATOMS
8
ITEM: BOX BOUNDS xy xz yz pp pp pp
0.0000000000000000e+00 5.5999999999999996e+00 0.0000000000000000e+00
0.0000000000000000e+00 5.5999999999999996e+00 0.0000000000000000e+00
0.0000000000000000e+00 5.5999999999999996e+00 0.0000000000000000e+00
ITEM: ATOMS x y z
0.68125 0.68125 0.68125
3.40625 3.40625 0.68125
3.40625 0.68125 3.40625
0.68125 3.40625 3.40625
4.76875 2.04375 2.04375
2.04375 4.76875 2.04375
2.04375 2.04375 4.76875
4.76875 4.76875 4.76875
ITEM: TIMESTEP
9630
ITEM: NUMBER OF ATOMS
8
ITEM: BOX BOUNDS xy xz yz pp pp pp
0.0000000000000000e+00 5.5999999999999996e+00 0.0000000000000000e+00
0.0000000000000000e+00 5.5999999999999996e+00 0.0000000000000000e+00
0.0000000000000000e+00 5.5999999999999996e+00 0.0000000000000000e+00
ITEM: ATOMS x y z
0.68125 0.68125 0.68125
3.40625 3.40625 0.68125
3.40625 0.68125 3.40625
0.68125 3.40625 3.40625
4.76875 2.04375 2.04375
2.04375 4.76875 2.04375
2.04375 2.04375 4.76875
4.76875 4.76875 4.76875
ITEM: TIMESTEP
9640
ITEM: NUMBER OF ATOMS
8
ITEM: BOX BOUNDS xy xz yz pp pp pp
0.0000000000000000e+00 5.5999999999999996e+00 0.0000000000000000e+00
0.0000000000000000e+00 5.5999999999999996e+00 0.0000000000000000e+00
0.0000000000000000e+00 5.5999999999999996e+00 0.0000000000000000e+00
ITEM: ATOMS x y z
0.68125 0.68125 0.68125
3.40625 3.40625 0.68125
3.40625 0.68125 3.40625
0.68125 3.40625 3.40625
4.76875 2.04375 2.04375
2.04375 4.76875 2.04375
2.04375 2.04375 4.76875
4.76875 4.76875 4.76875
ITEM: TIMESTEP
9650
ITEM: NUMBER OF ATOMS
8
ITEM: BOX BOUNDS xy xz yz pp pp pp
0.0000000000000000e+00 5.5999999999999996e+00 0.0000000000000000e+00
0.0000000000000000e+00 5.5999999999999996e+00 0.0000000000000000e+00
0.0000000000000000e+00 5.5999999999999996e+00 0.0000000000000000e+00
ITEM: ATOMS x y z
0.68125 0.68125 0.68125
3.40625 3.40625 0.68125
3.40625 0.68125 3.40625
0.68125 3.40625 3.40625
4.76875 2.04375 2.04375
2.04375 4.76875 2.04375
2.04375 2.04375 4.76875
4.76875 4.76875 4.76875
ITEM: TIMESTEP
9660
ITEM: NUMBER OF ATOMS
8
ITEM: BOX BOUNDS xy xz yz pp pp pp
0.0000000000000000e+00 5.5999999999999996e+00 0.0000000000000000e+00
0.0000000000000000e+00 5.5999999999999996e+00 0.0000000000000000e+00
0.0000000000000000e+00 5.5999999999999996e+00 0.0000000000000000e+00
ITEM: ATOMS x y z
0.68125 0.68125 0.68125
3.40625 3.40625 0.68125
3.40625 0.68125 3.40625
0.68125 3.40625 3.40625
4.76875 2.04375 2.04375
2.04375 4.76875 2.04375
2.04375 2.04375 4.76875
4.76875 4.76875 4.76875
ITEM: TIMESTEP
9670
ITEM: NUMBER OF ATOMS
8
ITEM: BOX BOUNDS xy xz yz pp pp pp
0.0000000000000000e+00 5.5999999999999996e+00 0.0000000000000000e+00
0.0000000000000000e+00 5.5999999999999996e+00 0.0000000000000000e+00
0.0000000000000000e+00 5.5999999999999996e+00 0.0000000000000000e+00
ITEM: ATOMS x y z
0.68125 0.68125 0.68125
3.40625 3.40625 0.68125
3.40625 0.68125 3.40625
0.68125 3.40625 3.40625
4.76875 2.04375 2.04375
2.04375 4.76875 2.04375
2.04375 2.04375 4.76875
4.76875 4.76875 4.76875
ITEM: TIMESTEP
9680
ITEM: NUMBER OF ATOMS
8
ITEM: BOX BOUNDS xy xz yz pp pp pp
0.0000000000000000e+00 5.5999999999999996e+00 0.0000000000000000e+00
0.0000000000000000e+00 5.5999999999999996e+00 0.0000000000000000e+00
0.0000000000000000e+00 5.5999999999999996e+00 0.0000000000000000e+00
ITEM: ATOMS x y z
0.68125 0.68125 0.68125
3.40625 3.40625 0.68125
3.40625 0.68125 3.40625
0.68125 3.40625 3.40625
4.76875 2.04375 2.04375
2.04375 4.76875 2.04375
2.04375 2.04375 4.76875
4.76875 4.76875 4.76875
ITEM: TIMESTEP
9690
ITEM: NUMBER OF ATOMS
8
ITEM: BOX BOUNDS xy xz yz pp pp pp
0.0000000000000000e+00 5.5999999999999996e+00 0.0000000000000000e+00
0.0000000000000000e+00 5.5999999999999996e+00 0.0000000000000000e+00
0.0000000000000000e+00 5.5999999999999996e+00 0.0000000000000000e+00
ITEM: ATOMS x y z
0.68125 0.68125 0.68125
3.40625 3.40625 0.68125
3.40625 0.68125 3.40625
0.68125 3.40625 3.40625
4.76875 2.04375 2.04375
2.04375 4.76875 2.04375
2.04375 2.04375 4.76875
4.76875 4.76875 4.76875
ITEM: TIMESTEP
9700
ITEM: NUMBER OF ATOMS
8
ITEM: BOX BOUNDS xy xz yz pp pp pp
0.0000000000000000e+00 5.5999999999999996e+00 0.0000000000000000e+00
0.0000000000000000e+00 5.5999999999999996e+00 0.0000000000000000e+00
0.0000000000000000e+00 5.5999999999999996e+00 0.0000000000000000e+00
ITEM: ATOMS x y z
0.68125 0.68125 0.68125
3.40625 3.40625 0.68125
3.40625 0.68125 3.40625
0.68125 3.40625 3.40625
4.76875 2.04375 2.04375
2.04375 4.76875 2.04375
2.04375 2.04375 4.76875
4.76875 4.76875 4.76875
ITEM: TIMESTEP
9710
ITEM: NUMBER OF ATOMS
8
ITEM: BOX BOUNDS xy xz yz pp pp pp
0.0000000000000000e+00 5.5999999999999996e+00 0.0000000000000000e+00
0.0000000000000000e+00 5.5999999999999996e+00 0.0000000000000000e+00
0.0000000000000000e+00 5.5999999999999996e+00 0.0000000000000000e+00
ITEM: ATOMS x y z
0.68125 0.68125 0.68125
3.40625 3.40625 0.68125
3.40625 0.68125 3.40625
0.68125 3.40625 3.40625
4.76875 2.04375 2.04375
2.04375 4.76875 2.04375
2.04375 2.04375 4.76875
4.76875 4.76875 4.76875
ITEM: TIMESTEP
9720
ITEM: NUMBER OF ATOMS
8
ITEM: BOX BOUNDS xy xz yz pp pp pp
0.0000000000000000e+00 5.5999999999999996e+00 0.0000000000000000e+00
0.0000000000000000e+00 5.5999999999999996e+00 0.0000000000000000e+00
0.0000000000000000e+00 5.5999999999999996e+00 0.0000000000000000e+00
ITEM: ATOMS x y z
0.68125 0.68125 0.68125
3.40625 3.40625 0.68125
3.40625 0.68125 3.40625
0.68125 3.40625 3.40625
4.76875 2.04375 2.04375
2.04375 4.76875 2.04375
2.04375 2.04375 4.76875
4.76875 4.76875 4.76875
ITEM: TIMESTEP
9730
ITEM: NUMBER OF ATOMS
8
ITEM: BOX BOUNDS xy xz yz pp pp pp
0.0000000000000000e+00 5.5999999999999996e+00 0.0000000000000000e+00
0.0000000000000000e+00 5.5999999999999996e+00 0.0000000000000000e+00
0.0000000000000000e+00 5.5999999999999996e+00 0.0000000000000000e+00
ITEM: ATOMS x y z
0.68125 0.68125 0.68125
3.40625 3.40625 0.68125
3.40625 0.68125 3.40625
0.68125 3.40625 3.40625
4.76875 2.04375 2.04375
2.04375 4.76875 2.04375
2.04375 2.04375 4.76875
4.76875 4.76875 4.76875
ITEM: TIMESTEP
9740
ITEM: NUMBER OF ATOMS
8
ITEM: BOX BOUNDS xy xz yz pp pp pp
0.0000000000000000e+00 5.5999999999999996e+00 0.0000000000000000e+00
0.0000000000000000e+00 5.5999999999999996e+00 0.0000000000000000e+00
0.0000000000000000e+00 5.5999999999999996e+00 0.0000000000000000e+00
ITEM: ATOMS x y z
0.68125 0.68125 0.68125
3.40625 3.40625 0.68125
3.40625 0.68125 3.40625
0.68125 3.40625 3.40625
4.76875 2.04375 2.04375
2.04375 4.76875 2.04375
2.04375 2.04375 4.76875
4.76875 4.76875 4.76875
ITEM: TIMESTEP
9750
ITEM: NUMBER OF ATOMS
8
ITEM: BOX BOUNDS xy xz yz pp pp pp
0.0000000000000000e+00 5.5999999999999996e+00 0.0000000000000000e+00
0.0000000000000000e+00 5.5999999999999996e+00 0.0000000000000000e+00
0.0000000000000000e+00 5.5999999999999996e+00 0.0000000000000000e+00
ITEM: ATOMS x y z
0.68125 0.68125 0.68125
3.40625 3.40625 0.68125
3.40625 0.68125 3.40625
0.68125 3.40625 3.40625
4.76875 2.04375 2.04375
2.04375 4.76875 2.04375
2.04375 2.04375 4.76875
4.76875 4.76875 4.76875
ITEM: TIMESTEP
9760
ITEM: NUMBER OF ATOMS
8
ITEM: BOX BOUNDS xy xz yz pp pp pp
0.0000000000000000e+00 5.5999999999999996e+00 0.0000000000000000e+00
0.0000000000000000e+00 5.5999999999999996e+00 0.0000000000000000e+00
0.0000000000000000e+00 5.5999999999999996e+00 0.0000000000000000e+00
ITEM: ATOMS x y z
0.68125 0.68125 0.68125
3.40625 3.40625 0.68125
3.40625 0.68125 3.40625
0.68125 3.40625 3.40625
4.76875 2.04375 2.04375
2.04375 4.76875 2.04375
2.04375 2.04375 4.76875
4.76875 4.76875 4.76875
ITEM: TIMESTEP
9770
ITEM: NUMBER OF ATOMS
8
ITEM: BOX BOUNDS xy xz yz pp pp pp
0.0000000000000000e+00 5.5999999999999996e+00 0.0000000000000000e+00
0.0000000000000000e+00 5.5999999999999996e+00 0.0000000000000000e+00
0.0000000000000000e+00 5.5999999999999996e+00 0.0000000000000000e+00
ITEM: ATOMS x y z
0.68125 0.68125 0.68125
3.40625 3.40625 0.68125
3.40625 0.68125 3.40625
0.68125 3.40625 3.40625
4.76875 2.04375 2.04375
2.04375 4.76875 2.04375
2.04375 2.04375 4.76875
4.76875 4.76875 4.76875
ITEM: TIMESTEP
9780
ITEM: NUMBER OF ATOMS
8
ITEM: BOX BOUNDS xy xz yz pp pp pp
0.0000000000000000e+00 5.5999999999999996e+00 0.0000000000000000e+00
0.0000000000000000e+00 5.5999999999999996e+00 0.0000000000000000e+00
0.0000000000000000e+00 5.5999999999999996e+00 0.0000000000000000e+00
ITEM: ATOMS x y z
0.68125 0.68125 0.68125
3.40625 3.40625 0.68125
3.40625 0.68125 3.40625
0.68125 3.40625 3.40625
4.76875 2.04375 2.04375
2.04375 4.76875 2.04375
2.04375 2.04375 4.76875
4.76875 4.76875 4.76875
ITEM: TIMESTEP
9790
ITEM: NUMBER OF ATOMS
8
ITEM: BOX BOUNDS xy xz yz pp pp pp
0.0000000000000000e+00 5.5999999999999996e+00 0.0000000000000000e+00
0.0000000000000000e+00 5.5999999999999996e+00 0.0000000000000000e+00
0.0000000000000000e+00 5.5999999999999996e+00 0.0000000000000000e+00
ITEM: ATOMS x y z
0.68125 0.68125 0.68125
3.40625 3.40625 0.68125
3.40625 0.68125 3.40625
0.68125 3.40625 3.40625
4.76875 2.04375 2.04375
2.04375 4.76875 2.04375
2.04375 2.04375 4.76875
4.76875 4.76875 4.76875
ITEM: TIMESTEP
9800
ITEM: NUMBER OF ATOMS
8
ITEM: BOX BOUNDS xy xz yz pp pp pp
0.0000000000000000e+00 5.5999999999999996e+00 0.0000000000000000e+00
0.0000000000000000e+00 5.5999999999999996e+00 0.0000000000000000e+00
0.0000000000000000e+00 5.5999999999999996e+00 0.0000000000000000e+00
ITEM: ATOMS x y z
0.68125 0.68125 0.68125
3.40625 3.40625 0.68125
3.40625 0.68125 3.40625
0.68125 3.40625 3.40625
4.76875 2.04375 2.04375
2.04375 4.76875 2.04375
2.04375 2.04375 4.76875
4.76875 4.76875 4.76875
ITEM: TIMESTEP
9810
ITEM: NUMBER OF ATOMS
8
ITEM: BOX BOUNDS xy xz yz pp pp pp
0.0000000000000000e+00 5.5999999999999996e+00 0.0000000000000000e+00
0.0000000000000000e+00 5.5999999999999996e+00 0.0000000000000000e+00
0.0000000000000000e+00 5.5999999999999996e+00 0.0000000000000000e+00
ITEM: ATOMS x y z
0.68125 0.68125 0.68125
3.40625 3.40625 0.68125
3.40625 0.68125 3.40625
0.68125 3.40625 3.40625
4.76875 2.04375 2.04375
2.04375 4.76875 2.04375
2.04375 2.04375 4.76875
4.76875 4.76875 4.76875
ITEM: TIMESTEP
9820
ITEM: NUMBER OF ATOMS
8
ITEM: BOX BOUNDS xy xz yz pp pp pp
0.0000000000000000e+00 5.5999999999999996e+00 0.0000000000000000e+00
0.0000000000000000e+00 5.5999999999999996e+00 0.0000000000000000e+00
0.0000000000000000e+00 5.5999999999999996e+00 0.0000000000000000e+00
ITEM: ATOMS x y z
0.68125 0.68125 0.68125
3.40625 3.40625 0.68125
3.40625 0.68125 3.40625
0.68125 3.40625 3.40625
4.76875 2.04375 2.04375
2.04375 4.76875 2.04375
2.04375 2.04375 4.76875
4.76875 4.76875 4.76875
ITEM: TIMESTEP
9830
ITEM: NUMBER OF ATOMS
8
ITEM: BOX BOUNDS xy xz yz pp pp pp
0.0000000000000000e+00 5.5999999999999996e+00 0.0000000000000000e+00
0.0000000000000000e+00 5.5999999999999996e+00 0.0000000000000000e+00
0.0000000000000000e+00 5.5999999999999996e+00 0.0000000000000000e+00
ITEM: ATOMS x y z
0.68125 0.68125 0.68125
3.40625 3.40625 0.68125
3.40625 0.68125 3.40625
0.68125 3.40625 3.40625
4.76875 2.04375 2.04375
2.04375 4.76875 2.04375
2.04375 2.04375 4.76875
4.76875 4.76875 4.76875
ITEM: TIMESTEP
9840
ITEM: NUMBER OF ATOMS
8
ITEM: BOX BOUNDS xy xz yz pp pp pp
0.0000000000000000e+00 5.5999999999999996e+00 0.0000000000000000e+00
0.0000000000000000e+00 5.5999999999999996e+00 0.0000000000000000e+00
0.0000000000000000e+00 5.5999999999999996e+00 0.0000000000000000e+00
ITEM: ATOMS x y z
0.68125 0.68125 0.68125
3.40625 3.40625 0.68125
3.40625 0.68125 3.40625
0.68125 3.40625 3.40625
4.76875 2.04375 2.04375
2.04375 4.76875 2.04375
2.04375 2.04375 4.76875
4.76875 4.76875 4.76875
ITEM: TIMESTEP
9850
ITEM: NUMBER OF ATOMS
8
ITEM: BOX BOUNDS xy xz yz pp pp pp
0.0000000000000000e+00 5.5999999999999996e+00 0.0000000000000000e+00
0.0000000000000000e+00 5.5999999999999996e+00 0.0000000000000000e+00
0.0000000000000000e+00 5.5999999999999996e+00 0.0000000000000000e+00
ITEM: ATOMS x y z
0.68125 0.68125 0.68125
3.40625 3.40625 0.68125
3.40625 0.68125 3.40625
0.68125 3.40625 3.40625
4.76875 2.04375 2.04375
2.04375 4.76875 2.04375
2.04375 2.04375 4.76875
4.76875 4.76875 4.76875
ITEM: TIMESTEP
9860
ITEM: NUMBER OF ATOMS
8
ITEM: BOX BOUNDS xy xz yz pp pp pp
0.0000000000000000e+00 5.5999999999999996e+00 0.0000000000000000e+00
0.0000000000000000e+00 5.5999999999999996e+00 0.0000000000000000e+00
0.0000000000000000e+00 5.5999999999999996e+00 0.0000000000000000e+00
ITEM: ATOMS x y z
0.68125 0.68125 0.68125
3.40625 3.40625 0.68125
3.40625 0.68125 3.40625
0.68125 3.40625 3.40625
4.76875 2.04375 2.04375
2.04375 4.76875 2.04375
2.04375 2.04375 4.76875
4.76875 4.76875 4.76875
ITEM: TIMESTEP
9870
ITEM: NUMBER OF ATOMS
8
ITEM: BOX BOUNDS xy xz yz pp pp pp
0.0000000000000000e+00 5.5999999999999996e+00 0.0000000000000000e+00
0.0000000000000000e+00 5.5999999999999996e+00 0.0000000000000000e+00
0.0000000000000000e+00 5.5999999999999996e+00 0.0000000000000000e+00
ITEM: ATOMS x y z
0.68125 0.68125 0.68125
3.40625 3.40625 0.68125
3.40625 0.68125 3.40625
0.68125 3.40625 3.40625
4.76875 2.04375 2.04375
2.04375 4.76875 2.04375
2.04375 2.04375 4.76875
4.76875 4.76875 4.76875
ITEM: TIMESTEP
9880
ITEM: NUMBER OF ATOMS
8
ITEM: BOX BOUNDS xy xz yz pp pp pp
0.0000000000000000e+00 5.5999999999999996e+00 0.0000000000000000e+00
0.0000000000000000e+00 5.5999999999999996e+00 0.0000000000000000e+00
0.0000000000000000e+00 5.5999999999999996e+00 0.0000000000000000e+00
ITEM: ATOMS x y z
0.68125 0.68125 0.68125
3.40625 3.40625 0.68125
3.40625 0.68125 3.40625
0.68125 3.40625 3.40625
4.76875 2.04375 2.04375
2.04375 4.76875 2.04375
2.04375 2.04375 4.76875
4.76875 4.76875 4.76875
ITEM: TIMESTEP
9890
ITEM: NUMBER OF ATOMS
8
ITEM: BOX BOUNDS xy xz yz pp pp pp
0.0000000000000000e+00 5.5999999999999996e+00 0.0000000000000000e+00
0.0000000000000000e+00 5.5999999999999996e+00 0.0000000000000000e+00
0.0000000000000000e+00 5.5999999999999996e+00 0.0000000000000000e+00
ITEM: ATOMS x y z
0.68125 0.68125 0.68125
3.40625 3.40625 0.68125
3.40625 0.68125 3.40625
0.68125 3.40625 3.40625
4.76875 2.04375 2.04375
2.04375 4.76875 2.04375
2.04375 2.04375 4.76875
4.76875 4.76875 4.76875
ITEM: TIMESTEP
9900
ITEM: NUMBER OF ATOMS
8
ITEM: BOX BOUNDS xy xz yz pp pp pp
0.0000000000000000e+00 5.5999999999999996e+00 0.0000000000000000e+00
0.0000000000000000e+00 5.5999999999999996e+00 0.0000000000000000e+00
0.0000000000000000e+00 5.5999999999999996e+00 0.0000000000000000e+00
ITEM: ATOMS x y z
0.68125 0.68125 0.68125
3.40625 3.40625 0.68125
3.40625 0.68125 3.40625
0.68125 3.40625 3.40625
4.76875 2.04375 2.04375
2.04375 4.76875 2.04375
2.04375 2.04375 4.76875
4.76875 4.76875 4.76875
ITEM: TIMESTEP
9910
ITEM: NUMBER OF ATOMS
8
ITEM: BOX BOUNDS xy xz yz pp pp pp
0.0000000000000000e+00 5.5999999999999996e+00 0.0000000000000000e+00
0.0000000000000000e+00 5.5999999999999996e+00 0.0000000000000000e+00
0.0000000000000000e+00 5.5999999999999996e+00 0.0000000000000000e+00
ITEM: ATOMS x y z
0.68125 0.68125 0.68125
3.40625 3.40625 0.68125
3.40625 0.68125 3.40625
0.68125 3.40625 3.40625
4.76875 2.04375 2.04375
2.04375 4.76875 2.04375
2.04375 2.04375 4.76875
4.76875 4.76875 4.76875
ITEM: TIMESTEP
9920
ITEM: NUMBER OF ATOMS
8
ITEM: BOX BOUNDS xy xz yz pp pp pp
0.0000000000000000e+00 5.5999999999999996e+00 0.0000000000000000e+00
0.0000000000000000e+00 5.5999999999999996e+00 0.0000000000000000e+00
0.0000000000000000e+00 5.5999999999999996e+00 0.0000000000000000e+00
ITEM: ATOMS x y z
0.68125 0.68125 0.68125
3.40625 3.40625 0.68125
3.40625 0.68125 3.40625
0.68125 3.40625 3.40625
4.76875 2.04375 2.04375
2.04375 4.76875 2.04375
2.04375 2.04375 4.76875
4.76875 4.76875 4.76875
ITEM: TIMESTEP
9930
ITEM: NUMBER OF ATOMS
8
ITEM: BOX BOUNDS xy xz yz pp pp pp
0.0000000000000000e+00 5.5999999999999996e+00 0.0000000000000000e+00
0.0000000000000000e+00 5.5999999999999996e+00 0.0000000000000000e+00
0.0000000000000000e+00 5.5999999999999996e+00 0.0000000000000000e+00
ITEM: ATOMS x y z
0.68125 0.68125 0.68125
3.40625 3.40625 0.68125
3.40625 0.68125 3.40625
0.68125 3.40625 3.40625
4.76875 2.04375 2.04375
2.04375 4.76875 2.04375
2.04375 2.04375 4.76875
4.76875 4.76875 4.76875
ITEM: TIMESTEP
9940
ITEM: NUMBER OF ATOMS
8
ITEM: BOX BOUNDS xy xz yz pp pp pp
0.0000000000000000e+00 5.5999999999999996e+00 0.0000000000000000e+00
0.0000000000000000e+00 5.5999999999999996e+00 0.0000000000000000e+00
0.0000000000000000e+00 5.5999999999999996e+00 0.0000000000000000e+00
ITEM: ATOMS x y z
0.68125 0.68125 0.68125
3.40625 3.40625 0.68125
3.40625 0.68125 3.40625
0.68125 3.40625 3.40625
4.76875 2.04375 2.04375
2.04375 4.76875 2.04375
2.04375 2.04375 4.76875
4.76875 4.76875 4.76875
ITEM: TIMESTEP
9950
ITEM: NUMBER OF ATOMS
8
ITEM: BOX BOUNDS xy xz yz pp pp pp
0.0000000000000000e+00 5.5999999999999996e+00 0.0000000000000000e+00
0.0000000000000000e+00 5.5999999999999996e+00 0.0000000000000000e+00
0.0000000000000000e+00 5.5999999999999996e+00 0.0000000000000000e+00
ITEM: ATOMS x y z
0.68125 0.68125 0.68125
3.40625 3.40625 0.68125
3.40625 0.68125 3.40625
0.68125 3.40625 3.40625
4.76875 2.04375 2.04375
2.04375 4.76875 2.04375
2.04375 2.04375 4.76875
4.76875 4.76875 4.76875
ITEM: TIMESTEP
9960
ITEM: NUMBER OF ATOMS
8
ITEM: BOX BOUNDS xy xz yz pp pp pp
0.0000000000000000e+00 5.5999999999999996e+00 0.0000000000000000e+00
0.0000000000000000e+00 5.5999999999999996e+00 0.0000000000000000e+00
0.0000000000000000e+00 5.5999999999999996e+00 0.0000000000000000e+00
ITEM: ATOMS x y z
0.68125 0.68125 0.68125
3.40625 3.40625 0.68125
3.40625 0.68125 3.40625
0.68125 3.40625 3.40625
4.76875 2.04375 2.04375
2.04375 4.76875 2.04375
2.04375 2.04375 4.76875
4.76875 4.76875 4.76875
ITEM: TIMESTEP
9970
ITEM: NUMBER OF ATOMS
8
ITEM: BOX BOUNDS xy xz yz pp pp pp
0.0000000000000000e+00 5.5999999999999996e+00 0.0000000000000000e+00
0.0000000000000000e+00 5.5999999999999996e+00 0.0000000000000000e+00
0.0000000000000000e+00 5.5999999999999996e+00 0.0000000000000000e+00
ITEM: ATOMS x y z
0.68125 0.68125 0.68125
3.40625 3.40625 0.68125
3.40625 0.68125 3.40625
0.68125 3.40625 3.40625
4.76875 2.04375 2.04375
2.04375 4.76875 2.04375
2.04375 2.04375 4.76875
4.76875 4.76875 4.76875
ITEM: TIMESTEP
9980
ITEM: NUMBER OF ATOMS
8
ITEM: BOX BOUNDS xy xz yz pp pp pp
0.0000000000000000e+00 5.5999999999999996e+00 0.0000000000000000e+00
0.0000000000000000e+00 5.5999999999999996e+00 0.0000000000000000e+00
0.0000000000000000e+00 5.5999999999999996e+00 0.0000000000000000e+00
ITEM: ATOMS x y z
0.68125 0.68125 0.68125
3.40625 3.40625 0.68125
3.40625 0.68125 3.40625
0.68125 3.40625 3.40625
4.76875 2.04375 2.04375
2.04375 4.76875 2.04375
2.04375 2.04375 4.76875
4.76875 4.76875 4.76875
ITEM: TIMESTEP
9990
ITEM: NUMBER OF ATOMS
8
ITEM: BOX BOUNDS xy xz yz pp pp pp
0.0000000000000000e+00 5.5999999999999996e+00 0.0000000000000000e+00
0.0000000000000000e+00 5.5999999999999996e+00 0.0000000000000000e+00
0.0000000000000000e+00 5.5999999999999996e+00 0.0000000000000000e+00
ITEM: ATOMS x y z
0.68125 0.68125 0.68125
3.40625 3.40625 0.68125
3.40625 0.68125 3.40625
0.68125 3.40625 3.40625
4.76875 2.04375 2.04375
2.04375 4.76875 2.04375
2.04375 2.04375 4.76875
4.76875 4.76875 4.76875
ITEM: TIMESTEP
10000
ITEM: NUMBER OF ATOMS
8
ITEM: BOX BOUNDS xy xz yz pp pp pp
0.0000000000000000e+00 5.5999999999999996e+00 0.0000000000000000e+00
0.0000000000000000e+00 5.5999999999999996e+00 0.0000000000000000e+00
0.0000000000000000e+00 5.5999999999999996e+00 0.0000000000000000e+00
ITEM: ATOMS x y z
0.68125 0.68125 0.68125
3.40625 3.40625 0.68125
3.40625 0.68125 3.40625
0.68125 3.40625 3.40625
4.76875 2.04375 2.04375
2.04375 4.76875 2.04375
2.04375 2.04375 4.76875
4.76875 4.76875 4.76875
ITEM: TIMESTEP
10010
ITEM: NUMBER OF ATOMS
8
ITEM: BOX BOUNDS xy xz yz pp pp pp
2.7999999999999983e-02 5.5720000000000027e+00 0.0000000000000000e+00
2.7999999999999983e-02 5.5720000000000027e+00 0.0000000000000000e+00
2.7999999999999983e-02 5.5720000000000027e+00 0.0000000000000000e+00
ITEM: ATOMS x y z
0.702095 0.702095 0.702095
3.40023 3.40023 0.701901
3.40023 0.701901 3.40023
0.701901 3.40023 3.40023
4.7496 2.05127 2.05127
2.05127 4.7496 2.05127
2.05127 2.05127 4.7496
4.74941 4.74941 4.74941
ITEM: TIMESTEP
10020
ITEM: NUMBER OF ATOMS
8
ITEM: BOX BOUNDS xy xz yz pp pp pp
5.5999999999999953e-02 5.5440000000000058e+00 0.0000000000000000e+00
5.5999999999999953e-02 5.5440000000000058e+00 0.0000000000000000e+00
5.5999999999999953e-02 5.5440000000000058e+00 0.0000000000000000e+00
ITEM: ATOMS x y z
0.72265 0.72265 0.72265
3.39425 3.39425 0.722112
3.39425 0.722112 3.39425
0.722112 3.39425 3.39425
4.73089 2.05875 2.05875
2.05875 4.73089 2.05875
2.05875 2.05875 4.73089
4.73035 4.73035 4.73035
ITEM: TIMESTEP
10030
ITEM: NUMBER OF ATOMS
8
ITEM: BOX BOUNDS xy xz yz pp pp pp
8.3999999999999922e-02 5.5160000000000089e+00 0.0000000000000000e+00
8.3999999999999922e-02 5.5160000000000089e+00 0.0000000000000000e+00
8.3999999999999922e-02 5.5160000000000089e+00 0.0000000000000000e+00
ITEM: ATOMS x y z
0.712402 0.712402 0.712402
3.39286 3.39286 0.698305
3.39286 0.698305 3.39286
0.698305 3.39286 3.39286
4.75619 2.06164 2.06164
2.06164 4.75619 2.06164
2.06164 2.06164 4.75619
4.7421 4.7421 4.7421
ITEM: TIMESTEP
10040
ITEM: NUMBER OF ATOMS
8
ITEM: BOX BOUNDS xy xz yz pp pp pp
8.3993575509541785e-02 5.5160064244904667e+00 0.0000000000000000e+00
8.3993575509541785e-02 5.5160064244904667e+00 0.0000000000000000e+00
8.3993575509541785e-02 5.5160064244904667e+00 0.0000000000000000e+00
ITEM: ATOMS x y z
0.689717 0.689717 0.689717
3.40597 3.40597 0.690872
3.40597 0.690872 3.40597
0.690872 3.40597 3.40597
4.76363 2.04852 2.04852
2.04852 4.76363 2.04852
2.04852 2.04852 4.76363
4.76478 4.76478 4.76478
ITEM: TIMESTEP
10050
ITEM: NUMBER OF ATOMS
8
ITEM: BOX BOUNDS xy xz yz pp pp pp
8.4019563681516959e-02 5.5159804363184923e+00 0.0000000000000000e+00
8.4019563681516959e-02 5.5159804363184923e+00 0.0000000000000000e+00
8.4019563681516959e-02 5.5159804363184923e+00 0.0000000000000000e+00
ITEM: ATOMS x y z
0.69026 0.69026 0.69026
3.40625 3.40625 0.690261
3.40625 0.690261 3.40625
0.690261 3.40625 3.40625
4.76424 2.04825 2.04825
2.04825 4.76424 2.04825
2.04825 2.04825 4.76424
4.76424 4.76424 4.76424
ITEM: TIMESTEP
10060
ITEM: NUMBER OF ATOMS
8
ITEM: BOX BOUNDS xy xz yz pp pp pp
8.4010524370389431e-02 5.5159894756296204e+00 0.0000000000000000e+00
8.4010524370389431e-02 5.5159894756296204e+00 0.0000000000000000e+00
8.4010524370389431e-02 5.5159894756296204e+00 0.0000000000000000e+00
ITEM: ATOMS x y z
0.690258 0.690258 0.690258
3.40625 3.40625 0.690258
3.40625 0.690258 3.40625
0.690258 3.40625 3.40625
4.76424 2.04825 2.04825
2.04825 4.76424 2.04825
2.04825 2.04825 4.76424
4.76424 4.76424 4.76424
ITEM: TIMESTEP
10070
ITEM: NUMBER OF ATOMS
8
ITEM: BOX BOUNDS xy xz yz pp pp pp
8.4010522541125690e-02 5.5159894774588842e+00 0.0000000000000000e+00
8.4010522541125690e-02 5.5159894774588842e+00 0.0000000000000000e+00
8.4010522541125690e-02 5.5159894774588842e+00 0.0000000000000000e+00
ITEM: ATOMS x y z
0.690258 0.690258 0.690258
3.40625 3.40625 0.690258
3.40625 0.690258 3.40625
0.690258 3.40625 3.40625
4.76424 2.04825 2.04825
2.04825 4.76424 2.04825
2.04825 2.04825 4.76424
4.76424 4.76424 4.76424
ITEM: TIMESTEP
10076
ITEM: NUMBER OF ATOMS
8
ITEM: BOX BOUNDS xy xz yz pp pp pp
8.4010521981083525e-02 5.5159894780189269e+00 0.0000000000000000e+00
8.4010521981083525e-02 5.5159894780189269e+00 0.0000000000000000e+00
8.4010521981083525e-02 5.5159894780189269e+00 0.0000000000000000e+00
ITEM: ATOMS x y z
0.690258 0.690258 0.690258
3.40625 3.40625 0.690258
3.40625 0.690258 3.40625
0.690258 3.40625 3.40625
4.76424 2.04825 2.04825
2.04825 4.76424 2.04825
2.04825 2.04825 4.76424
4.76424 4.76424 4.76424
