LAMMPS data file via write_data, version 7 Feb 2024, timestep = 10066, units = metal

8 atoms
1 atom types

0.08401052199014014 5.5159894780098675 xlo xhi
0.08401052199014014 5.5159894780098675 ylo yhi
0.08401052199014014 5.5159894780098675 zlo zhi
0 0 0 xy xz yz

Masses

1 28.0855

Atoms # atomic

5 1 0.692440938317093 0.692440938317092 0.6924409383170911 0 0 0
8 1 3.408430416205151 3.4084304162051495 0.6924409382624703 0 0 0
7 1 3.4084304162051504 0.6924409382624713 3.4084304162051478 0 0 0
6 1 0.6924409382624727 3.408430416205149 3.408430416205149 0 0 0
2 1 4.766425155270369 2.0504356773276884 2.0504356773276884 0 0 0
3 1 2.05043567732769 4.766425155270367 2.050435677327688 0 0 0
4 1 2.0504356773276893 2.050435677327688 4.766425155270367 0 0 0
1 1 4.766425155215747 4.766425155215747 4.766425155215747 0 0 0

Velocities

5 -0.029056502801964597 1.0527177335896052 -3.1262777535297257
8 0.9865513238087518 -1.0673345775169807 -3.0880267203561047
7 5.651231801412814 4.484506191600909 -0.04900946115430062
6 -5.417758276266755 -0.49386136245325185 1.7950761971745839
2 3.399843073397785 -0.12262849804820963 1.9702421257898535
3 -3.7243265135964916 -5.1245984343610695 2.8201609143306996
4 -0.49236762962805747 1.0121176957624123 -2.8106198521345167
1 -0.37411727632608016 0.2590812514265851 2.488454549879511
