&bands
   prefix = 'diamond',
   outdir = './output/',
   filband = 'bands.dat',
   lsym = .true.
/
