&control
   calculation = 'scf'		!perform self-consistent calculation
   prefix='hydrogen',
   ! this is a comment: you can comment out variables
   pseudo_dir = './pseudo/',	!directory where pseudopotentials are found
   outdir='.'		!directory to store (temporary) output
   ! set pseudo_dir and outdir to suitable directories

/
&system    
   ibrav=  1,		!simple cubic 
   celldm(1) =20, 	!lattice constant (in Bohr radii)
   nat=  1, 		!unit cell contains 2 atoms
   ntyp= 1,		!only one type of atoms is simulated (hydrogen)
   ecutwfc = 78.0,	!energy cut-off for the plane waves (in Ry)
   nbnd = 6, 		!number of bands (Kohn-Sham states) used in the calculation
   occupations = 'smearing',
   smearing = 'gaussian',
   degauss = 0.01
/
&electrons
/
ATOMIC_SPECIES
 H 1 H.upf	!atomic species, mass, and pseudopotential
ATOMIC_POSITIONS alat	!diamond: two atoms at (0,0,0) and (0.25,0.25,0.25)
H 0 0 0
K_POINTS automatic
1 1 1 0 0 0
